# vtk DataFile Version 2.0
Results
ASCII
DATASET UNSTRUCTURED_GRID
POINTS         27           float
0.0	0.0	0.0	
0.5	0.0	0.0	
1.0	0.0	0.0	
0.0	0.4	0.0	
0.5	0.4	0.0	
1.0	0.4	0.0	
0.0	0.8	0.0	
0.5	0.8	0.0	
1.0	0.8	0.0	
0.0	0.0	0.7	
0.5	0.0	0.7	
1.0	0.0	0.7	
0.0	0.4	0.7	
0.5	0.4	0.7	
1.0	0.4	0.7	
0.0	0.8	0.7	
0.5	0.8	0.7	
1.0	0.8	0.7	
0.0	0.0	1.4	
0.5	0.0	1.4	
1.0	0.0	1.4	
0.0	0.4	1.4	
0.5	0.4	1.4	
1.0	0.4	1.4	
0.0	0.8	1.4	
0.5	0.8	1.4	
1.0	0.8	1.4	

CELLS	8	72
 8	0	1	4	3	9	10	13	12	
 8	1	2	5	4	10	11	14	13	
 8	4	5	8	7	13	14	17	16	
 8	3	4	7	6	12	13	16	15	
 8	9	10	13	12	18	19	22	21	
 8	10	11	14	13	19	20	23	22	
 8	13	14	17	16	22	23	26	25	
 8	12	13	16	15	21	22	25	24	

CELL_TYPES	8
 12
 12
 12
 12
 12
 12
 12
 12

POINT_DATA	27
VECTORS	u 	float 
0.0	0.0	0.0
0.0	0.0	0.0
0.0	0.0	0.0
0.0	0.0	0.0
0.0	0.0	0.0
0.0	0.0	0.0
0.0	0.0	0.0
0.0	0.0	0.0
0.0	0.0	0.0
1.4e-09	1.3e-09	5.8e-09
0.0	1.2e-09	5.7e-09
-1.4e-09	1.3e-09	5.8e-09
1.4e-09	0.0	5.9e-09
0.0	0.0	5.5e-09
-1.4e-09	0.0	5.9e-09
1.4e-09	-1.3e-09	5.8e-09
0.0	-1.2e-09	5.7e-09
-1.4e-09	-1.3e-09	5.8e-09
2.2e-09	1.7e-09	1.62e-08
-0.0	1e-09	1.12e-08
-2.2e-09	1.7e-09	1.62e-08
1.9e-09	0.0	1.24e-08
-0.0	0.0	1.06e-08
-1.9e-09	0.0	1.24e-08
2.2e-09	-1.7e-09	1.62e-08
-0.0	-1e-09	1.12e-08
-2.2e-09	-1.7e-09	1.62e-08

VECTORS	v 	float 
0.0	0.0	0.0
0.0	0.0	0.0
0.0	0.0	0.0
0.0	0.0	0.0
0.0	0.0	0.0
0.0	0.0	0.0
0.0	0.0	0.0
0.0	0.0	0.0
0.0	0.0	0.0
-3e-10	-3e-10	-1.4e-09
-0.0	-3e-10	-1.4e-09
3e-10	-3e-10	-1.4e-09
-4e-10	0.0	-1.5e-09
-0.0	-0.0	-1.4e-09
4e-10	-0.0	-1.5e-09
-3e-10	3e-10	-1.4e-09
-0.0	3e-10	-1.4e-09
3e-10	3e-10	-1.4e-09
-5e-10	-4e-10	-4.1e-09
-0.0	-2e-10	-2.8e-09
5e-10	-4e-10	-4.1e-09
-5e-10	0.0	-3.1e-09
-0.0	-0.0	-2.7e-09
5e-10	-0.0	-3.1e-09
-5e-10	4e-10	-4.1e-09
-0.0	2e-10	-2.8e-09
5e-10	4e-10	-4.1e-09

VECTORS	a 	float 
0.0	0.0	0.0
0.0	0.0	0.0
0.0	0.0	0.0
0.0	0.0	0.0
0.0	0.0	0.0
0.0	0.0	0.0
0.0	0.0	0.0
0.0	0.0	0.0
0.0	0.0	0.0
-1e-09	-1e-09	-4.3e-09
-0.0	-9e-10	-4.2e-09
1e-09	-1e-09	-4.3e-09
-1.1e-09	0.0	-4.4e-09
-0.0	-0.0	-4.1e-09
1.1e-09	-0.0	-4.4e-09
-1e-09	1e-09	-4.3e-09
-0.0	9e-10	-4.2e-09
1e-09	1e-09	-4.3e-09
-1.6e-09	-1.3e-09	-1.22e-08
-0.0	-7e-10	-8.4e-09
1.6e-09	-1.3e-09	-1.22e-08
-1.4e-09	0.0	-9.3e-09
-0.0	-0.0	-8e-09
1.4e-09	-0.0	-9.3e-09
-1.6e-09	1.3e-09	-1.22e-08
-0.0	7e-10	-8.4e-09
1.6e-09	1.3e-09	-1.22e-08

SCALARS	phi	float 1
LOOKUP_TABLE	default
0.0
0.0
0.0
0.0
0.0
0.0
0.0
0.0
0.0
8.5761765036
7.8125000882
7.0488236561
8.5344196117
7.8125000919
7.0905805643
8.5761765036
7.8125000882
7.0488236561
16.2479866444
15.6250002062
15.0020138425
16.1579232342
15.6250001992
15.0920771983
16.2479866444
15.6250002062
15.0020138425

SCALARS	sig_11	float	1
LOOKUP_TABLE	default
454.9067690168
446.135827839
454.906768973
455.0177436365
437.3407458266
455.0177436054
454.9067690168
446.135827839
454.906768973
125.4642651891
27.2170854181
125.4642651773
41.501386574
-12.3720294532
41.5013865658
125.4642651891
27.2170854181
125.4642651773
8.8014389154
-153.4534073145
8.8014393106
-128.7183879848
-193.3196502515
-128.7183876747
8.8014389154
-153.4534073145
8.8014393106

SCALARS	sig_22	float	1
LOOKUP_TABLE	default
443.5285401785
437.7188220642
443.5285401391
444.728771716
430.0129969377
444.7287716863
443.5285401785
437.7188220642
443.5285401391
95.0297817983
16.058598962
95.0297817903
11.3151781032
-23.2822409955
11.3151780981
95.0297817983
16.058598962
95.0297817903
19.6244289445
-77.3152308158
19.6244292889
-134.9231121079
-134.2091878646
-134.9231118045
19.6244289445
-77.3152308158
19.6244292889

SCALARS	sig_33	float	1
LOOKUP_TABLE	default
1253.172543024
1231.2037963269
1253.1725429759
1256.8628227686
1215.5937444562
1256.8628227386
1253.172543024
1231.2037963269
1253.1725429759
1264.3411690734
1032.1535284405
1264.3411690865
1083.1713724974
947.1461965554
1083.1713725157
1264.3411690734
1032.1535284405
1264.3411690865
1428.9223130633
1011.9843521689
1428.9223133573
1076.9743398385
871.6616393866
1076.9743400881
1428.9223130633
1011.9843521689
1428.9223133573

SCALARS vonMises	float	1
LOOKUP_TABLE	default
579.1358620462
563.2181815332
579.1358620437
576.2709253357
553.9958767569
576.2709253365
579.1358620462
563.2181815332
579.1358620437
826.5059349443
723.7694493073
826.5059349638
754.6243304181
687.6136002496
754.624330437
826.5059349443
723.7694493073
826.5059349638
1095.0509314362
886.0076484736
1095.0509314024
932.2381189584
780.9657865897
932.2381189304
1095.0509314362
886.0076484736
1095.0509314024
