# vtk DataFile Version 2.0
Results
ASCII
DATASET UNSTRUCTURED_GRID
POINTS         27           float
0.0	0.0	0.0	
0.5	0.0	0.0	
1.0	0.0	0.0	
0.0	0.4	0.0	
0.5	0.4	0.0	
1.0	0.4	0.0	
0.0	0.8	0.0	
0.5	0.8	0.0	
1.0	0.8	0.0	
0.0	0.0	0.7	
0.5	0.0	0.7	
1.0	0.0	0.7	
0.0	0.4	0.7	
0.5	0.4	0.7	
1.0	0.4	0.7	
0.0	0.8	0.7	
0.5	0.8	0.7	
1.0	0.8	0.7	
0.0	0.0	1.4	
0.5	0.0	1.4	
1.0	0.0	1.4	
0.0	0.4	1.4	
0.5	0.4	1.4	
1.0	0.4	1.4	
0.0	0.8	1.4	
0.5	0.8	1.4	
1.0	0.8	1.4	

CELLS	8	72
 8	0	1	4	3	9	10	13	12	
 8	1	2	5	4	10	11	14	13	
 8	4	5	8	7	13	14	17	16	
 8	3	4	7	6	12	13	16	15	
 8	9	10	13	12	18	19	22	21	
 8	10	11	14	13	19	20	23	22	
 8	13	14	17	16	22	23	26	25	
 8	12	13	16	15	21	22	25	24	

CELL_TYPES	8
 12
 12
 12
 12
 12
 12
 12
 12

POINT_DATA	27
VECTORS	u 	float 
0.0	0.0	0.0
0.0	0.0	0.0
0.0	0.0	0.0
0.0	0.0	0.0
0.0	0.0	0.0
0.0	0.0	0.0
0.0	0.0	0.0
0.0	0.0	0.0
0.0	0.0	0.0
1.4e-09	1.3e-09	5.8e-09
-0.0	1.2e-09	5.7e-09
-1.4e-09	1.3e-09	5.8e-09
1.4e-09	0.0	5.9e-09
0.0	0.0	5.5e-09
-1.4e-09	0.0	5.9e-09
1.4e-09	-1.3e-09	5.8e-09
-0.0	-1.2e-09	5.7e-09
-1.4e-09	-1.3e-09	5.8e-09
2.2e-09	1.7e-09	1.62e-08
-0.0	1e-09	1.12e-08
-2.2e-09	1.7e-09	1.62e-08
1.9e-09	0.0	1.24e-08
-0.0	0.0	1.06e-08
-1.9e-09	0.0	1.24e-08
2.2e-09	-1.7e-09	1.62e-08
-0.0	-1e-09	1.12e-08
-2.2e-09	-1.7e-09	1.62e-08

VECTORS	v 	float 
0.0	0.0	0.0
0.0	0.0	0.0
0.0	0.0	0.0
0.0	0.0	0.0
0.0	0.0	0.0
0.0	0.0	0.0
0.0	0.0	0.0
0.0	0.0	0.0
0.0	0.0	0.0
-5e-10	-5e-10	-2.2e-09
-0.0	-5e-10	-2.1e-09
5e-10	-5e-10	-2.2e-09
-5e-10	0.0	-2.2e-09
-0.0	-0.0	-2e-09
5e-10	-0.0	-2.2e-09
-5e-10	5e-10	-2.2e-09
-0.0	5e-10	-2.1e-09
5e-10	5e-10	-2.2e-09
-8e-10	-6e-10	-6.1e-09
-0.0	-4e-10	-4.2e-09
8e-10	-6e-10	-6.1e-09
-7e-10	0.0	-4.6e-09
-0.0	-0.0	-4e-09
7e-10	-0.0	-4.6e-09
-8e-10	6e-10	-6.1e-09
-0.0	4e-10	-4.2e-09
8e-10	6e-10	-6.1e-09

VECTORS	a 	float 
0.0	0.0	0.0
0.0	0.0	0.0
0.0	0.0	0.0
0.0	0.0	0.0
0.0	0.0	0.0
0.0	0.0	0.0
0.0	0.0	0.0
0.0	0.0	0.0
0.0	0.0	0.0
-2e-10	-2e-10	-7e-10
-0.0	-2e-10	-7e-10
2e-10	-2e-10	-7e-10
-2e-10	0.0	-7e-10
-0.0	-0.0	-7e-10
2e-10	-0.0	-7e-10
-2e-10	2e-10	-7e-10
-0.0	2e-10	-7e-10
2e-10	2e-10	-7e-10
-3e-10	-2e-10	-2e-09
-0.0	-1e-10	-1.4e-09
3e-10	-2e-10	-2e-09
-2e-10	0.0	-1.5e-09
-0.0	-0.0	-1.3e-09
2e-10	-0.0	-1.5e-09
-3e-10	2e-10	-2e-09
-0.0	1e-10	-1.4e-09
3e-10	2e-10	-2e-09

SCALARS	phi	float 1
LOOKUP_TABLE	default
0.0
0.0
0.0
0.0
0.0
0.0
0.0
0.0
0.0
8.5761765036
7.8125000882
7.0488236561
8.5344196117
7.8125000919
7.0905805643
8.5761765036
7.8125000882
7.0488236561
16.2479866444
15.6250002062
15.0020138424
16.1579232342
15.6250001992
15.0920771983
16.2479866444
15.6250002062
15.0020138424

SCALARS	sig_11	float	1
LOOKUP_TABLE	default
454.906769064
446.1358279125
454.9067690638
455.0177436939
437.3407459039
455.0177436937
454.906769064
446.1358279125
454.9067690638
125.4642653901
27.2170856255
125.4642653905
41.5013867802
-12.3720292424
41.5013867806
125.4642653901
27.2170856255
125.4642653905
8.8014393954
-153.4534070325
8.8014393995
-128.7183875451
-193.3196499673
-128.7183875413
8.8014393954
-153.4534070325
8.8014393995

SCALARS	sig_22	float	1
LOOKUP_TABLE	default
443.5285402288
437.7188221381
443.5285402286
444.7287717746
430.0129970152
444.7287717744
443.5285402288
437.7188221381
443.5285402286
95.0297820039
16.0585991709
95.0297820043
11.3151783123
-23.2822407845
11.3151783127
95.0297820039
16.0585991709
95.0297820043
19.6244294003
-77.3152305328
19.624429404
-134.9231116724
-134.2091875813
-134.9231116688
19.6244294003
-77.3152305328
19.624429404

SCALARS	sig_33	float	1
LOOKUP_TABLE	default
1253.1725430819
1231.2037964188
1253.1725430817
1256.8628228426
1215.5937445554
1256.8628228425
1253.1725430819
1231.2037964188
1253.1725430817
1264.3411692808
1032.1535286432
1264.3411692814
1083.1713727103
947.1461967612
1083.1713727109
1264.3411692808
1032.1535286432
1264.3411692814
1428.9223134896
1011.9843524444
1428.9223134927
1076.974340241
871.6616396607
1076.9743402441
1428.9223134896
1011.9843524444
1428.9223134927

SCALARS vonMises	float	1
LOOKUP_TABLE	default
579.1358620488
563.2181815437
579.1358620488
576.2709253444
553.9958767718
576.2709253445
579.1358620488
563.2181815437
579.1358620488
826.5059349472
723.7694493023
826.5059349473
754.6243304215
687.6136002453
754.6243304217
826.5059349472
723.7694493023
826.5059349473
1095.0509314172
886.0076484679
1095.0509314169
932.2381189393
780.9657865817
932.238118939
1095.0509314172
886.0076484679
1095.0509314169
