# vtk DataFile Version 2.0
Results
ASCII
DATASET UNSTRUCTURED_GRID
POINTS         27           float
0.0	0.0	0.0	
0.5	0.0	0.0	
1.0	0.0	0.0	
0.0	0.4	0.0	
0.5	0.4	0.0	
1.0	0.4	0.0	
0.0	0.8	0.0	
0.5	0.8	0.0	
1.0	0.8	0.0	
0.0	0.0	0.7	
0.5	0.0	0.7	
1.0	0.0	0.7	
0.0	0.4	0.7	
0.5	0.4	0.7	
1.0	0.4	0.7	
0.0	0.8	0.7	
0.5	0.8	0.7	
1.0	0.8	0.7	
0.0	0.0	1.4	
0.5	0.0	1.4	
1.0	0.0	1.4	
0.0	0.4	1.4	
0.5	0.4	1.4	
1.0	0.4	1.4	
0.0	0.8	1.4	
0.5	0.8	1.4	
1.0	0.8	1.4	

CELLS	8	72
 8	0	1	4	3	9	10	13	12	
 8	1	2	5	4	10	11	14	13	
 8	4	5	8	7	13	14	17	16	
 8	3	4	7	6	12	13	16	15	
 8	9	10	13	12	18	19	22	21	
 8	10	11	14	13	19	20	23	22	
 8	13	14	17	16	22	23	26	25	
 8	12	13	16	15	21	22	25	24	

CELL_TYPES	8
 12
 12
 12
 12
 12
 12
 12
 12

POINT_DATA	27
VECTORS	u 	float 
0.0	0.0	0.0
0.0	0.0	0.0
0.0	0.0	0.0
0.0	0.0	0.0
0.0	0.0	0.0
0.0	0.0	0.0
0.0	0.0	0.0
0.0	0.0	0.0
0.0	0.0	0.0
1.4e-09	1.3e-09	5.8e-09
0.0	1.2e-09	5.7e-09
-1.4e-09	1.3e-09	5.8e-09
1.4e-09	0.0	5.9e-09
0.0	0.0	5.5e-09
-1.4e-09	0.0	5.9e-09
1.4e-09	-1.3e-09	5.8e-09
0.0	-1.2e-09	5.7e-09
-1.4e-09	-1.3e-09	5.8e-09
2.2e-09	1.7e-09	1.62e-08
-0.0	1e-09	1.12e-08
-2.2e-09	1.7e-09	1.62e-08
1.9e-09	0.0	1.24e-08
-0.0	0.0	1.06e-08
-1.9e-09	-0.0	1.24e-08
2.2e-09	-1.7e-09	1.62e-08
-0.0	-1e-09	1.12e-08
-2.2e-09	-1.7e-09	1.62e-08

VECTORS	v 	float 
0.0	0.0	0.0
0.0	0.0	0.0
0.0	0.0	0.0
0.0	0.0	0.0
0.0	0.0	0.0
0.0	0.0	0.0
0.0	0.0	0.0
0.0	0.0	0.0
0.0	0.0	0.0
7e-10	7e-10	2.9e-09
0.0	6e-10	2.8e-09
-7e-10	7e-10	2.9e-09
7e-10	-0.0	3e-09
0.0	0.0	2.7e-09
-7e-10	0.0	3e-09
7e-10	-7e-10	2.9e-09
0.0	-6e-10	2.8e-09
-7e-10	-7e-10	2.9e-09
1.1e-09	9e-10	8.1e-09
0.0	5e-10	5.6e-09
-1.1e-09	9e-10	8.1e-09
9e-10	-0.0	6.2e-09
0.0	0.0	5.3e-09
-9e-10	0.0	6.2e-09
1.1e-09	-9e-10	8.1e-09
0.0	-5e-10	5.6e-09
-1.1e-09	-9e-10	8.1e-09

VECTORS	a 	float 
0.0	0.0	0.0
0.0	0.0	0.0
0.0	0.0	0.0
0.0	0.0	0.0
0.0	0.0	0.0
0.0	0.0	0.0
0.0	0.0	0.0
0.0	0.0	0.0
0.0	0.0	0.0
-7e-10	-7e-10	-2.9e-09
-0.0	-6e-10	-2.8e-09
7e-10	-7e-10	-2.9e-09
-7e-10	0.0	-3e-09
-0.0	-0.0	-2.7e-09
7e-10	-0.0	-3e-09
-7e-10	7e-10	-2.9e-09
-0.0	6e-10	-2.8e-09
7e-10	7e-10	-2.9e-09
-1.1e-09	-9e-10	-8.1e-09
-0.0	-5e-10	-5.6e-09
1.1e-09	-9e-10	-8.1e-09
-9e-10	0.0	-6.2e-09
-0.0	-0.0	-5.3e-09
9e-10	-0.0	-6.2e-09
-1.1e-09	9e-10	-8.1e-09
-0.0	5e-10	-5.6e-09
1.1e-09	9e-10	-8.1e-09

SCALARS	phi	float 1
LOOKUP_TABLE	default
0.0
0.0
0.0
0.0
0.0
0.0
0.0
0.0
0.0
8.5761765033
7.8125000882
7.0488236565
8.5344196114
7.8125000919
7.0905805647
8.5761765033
7.8125000882
7.0488236565
16.2479866437
15.6250002063
15.0020138428
16.1579232335
15.6250001993
15.0920771987
16.2479866437
15.6250002063
15.0020138428

SCALARS	sig_11	float	1
LOOKUP_TABLE	default
454.9067589416
446.1358165614
454.9067589416
455.0177325481
437.3407339391
455.0177325481
454.9067589416
446.1358165614
454.9067589416
125.4642426817
27.2170644444
125.4642426817
41.5013651997
-12.372049654
41.5013651997
125.4642426817
27.2170644444
125.4642426817
8.8014035912
-153.4534382663
8.8014035912
-128.7184194434
-193.3196784218
-128.7184194434
8.8014035912
-153.4534382663
8.8014035912

SCALARS	sig_22	float	1
LOOKUP_TABLE	default
443.528530165
437.7188109809
443.528530165
444.7287606358
430.0129851926
444.7287606358
443.528530165
437.7188109809
443.528530165
95.0297593674
16.0585786869
95.0297593674
11.3151565129
-23.2822607899
11.3151565129
95.0297593674
16.0585786869
95.0297593674
19.6243930309
-77.3152608797
19.6243930309
-134.9231450033
-134.2092160165
-134.9231450033
19.6243930309
-77.3152608797
19.6243930309

SCALARS	sig_33	float	1
LOOKUP_TABLE	default
1253.172524368
1231.203774907
1253.172524368
1256.8628017476
1215.5937215501
1256.8628017476
1253.172524368
1231.203774907
1253.172524368
1264.3411331036
1032.153495151
1264.3411331036
1083.1713380566
947.1461640154
1083.1713380566
1264.3411331036
1032.153495151
1264.3411331036
1428.9222593217
1011.9843067321
1428.9222593217
1076.9742917905
871.661597224
1076.9742917905
1428.9222593217
1011.9843067321
1428.9222593217

SCALARS vonMises	float	1
LOOKUP_TABLE	default
579.135856134
563.218174377
579.135856134
576.2709184291
553.995868927
576.2709184291
579.135856134
563.218174377
579.135856134
826.5059253681
723.7694404631
826.5059253681
754.6243213229
687.6135914965
754.6243213229
826.5059253681
723.7694404631
826.5059253681
1095.0509181083
886.0076377805
1095.0509181083
932.23810758
780.965776681
932.23810758
1095.0509181083
886.0076377805
1095.0509181083
