# vtk DataFile Version 2.0
Results
ASCII
DATASET UNSTRUCTURED_GRID
POINTS         27           float
0.0	0.0	0.0	
0.5	0.0	0.0	
1.0	0.0	0.0	
0.0	0.4	0.0	
0.5	0.4	0.0	
1.0	0.4	0.0	
0.0	0.8	0.0	
0.5	0.8	0.0	
1.0	0.8	0.0	
0.0	0.0	0.7	
0.5	0.0	0.7	
1.0	0.0	0.7	
0.0	0.4	0.7	
0.5	0.4	0.7	
1.0	0.4	0.7	
0.0	0.8	0.7	
0.5	0.8	0.7	
1.0	0.8	0.7	
0.0	0.0	1.4	
0.5	0.0	1.4	
1.0	0.0	1.4	
0.0	0.4	1.4	
0.5	0.4	1.4	
1.0	0.4	1.4	
0.0	0.8	1.4	
0.5	0.8	1.4	
1.0	0.8	1.4	

CELLS	8	72
 8	0	1	4	3	9	10	13	12	
 8	1	2	5	4	10	11	14	13	
 8	4	5	8	7	13	14	17	16	
 8	3	4	7	6	12	13	16	15	
 8	9	10	13	12	18	19	22	21	
 8	10	11	14	13	19	20	23	22	
 8	13	14	17	16	22	23	26	25	
 8	12	13	16	15	21	22	25	24	

CELL_TYPES	8
 12
 12
 12
 12
 12
 12
 12
 12

POINT_DATA	27
VECTORS	u 	float 
0.0	0.0	0.0
0.0	0.0	0.0
0.0	0.0	0.0
0.0	0.0	0.0
0.0	0.0	0.0
0.0	0.0	0.0
0.0	0.0	0.0
0.0	0.0	0.0
0.0	0.0	0.0
1.4e-09	1.3e-09	5.8e-09
0.0	1.2e-09	5.7e-09
-1.4e-09	1.3e-09	5.8e-09
1.4e-09	0.0	5.9e-09
0.0	0.0	5.5e-09
-1.4e-09	0.0	5.9e-09
1.4e-09	-1.3e-09	5.8e-09
0.0	-1.2e-09	5.7e-09
-1.4e-09	-1.3e-09	5.8e-09
2.2e-09	1.7e-09	1.62e-08
0.0	1e-09	1.12e-08
-2.2e-09	1.7e-09	1.62e-08
1.9e-09	0.0	1.24e-08
0.0	0.0	1.06e-08
-1.9e-09	0.0	1.24e-08
2.2e-09	-1.7e-09	1.62e-08
0.0	-1e-09	1.12e-08
-2.2e-09	-1.7e-09	1.62e-08

VECTORS	v 	float 
0.0	0.0	0.0
0.0	0.0	0.0
0.0	0.0	0.0
0.0	0.0	0.0
0.0	0.0	0.0
0.0	0.0	0.0
0.0	0.0	0.0
0.0	0.0	0.0
0.0	0.0	0.0
1.4e-09	1.3e-09	5.8e-09
0.0	1.2e-09	5.7e-09
-1.4e-09	1.3e-09	5.8e-09
1.4e-09	-0.0	5.9e-09
0.0	0.0	5.5e-09
-1.4e-09	0.0	5.9e-09
1.4e-09	-1.3e-09	5.8e-09
0.0	-1.2e-09	5.7e-09
-1.4e-09	-1.3e-09	5.8e-09
2.2e-09	1.7e-09	1.62e-08
0.0	1e-09	1.12e-08
-2.2e-09	1.7e-09	1.62e-08
1.9e-09	-0.0	1.24e-08
0.0	0.0	1.06e-08
-1.9e-09	0.0	1.24e-08
2.2e-09	-1.7e-09	1.62e-08
0.0	-1e-09	1.12e-08
-2.2e-09	-1.7e-09	1.62e-08

VECTORS	a 	float 
0.0	0.0	0.0
0.0	0.0	0.0
0.0	0.0	0.0
0.0	0.0	0.0
0.0	0.0	0.0
0.0	0.0	0.0
0.0	0.0	0.0
0.0	0.0	0.0
0.0	0.0	0.0
1.4e-09	1.3e-09	5.8e-09
0.0	1.2e-09	5.7e-09
-1.4e-09	1.3e-09	5.8e-09
1.4e-09	-0.0	5.9e-09
0.0	0.0	5.5e-09
-1.4e-09	0.0	5.9e-09
1.4e-09	-1.3e-09	5.8e-09
0.0	-1.2e-09	5.7e-09
-1.4e-09	-1.3e-09	5.8e-09
2.2e-09	1.7e-09	1.62e-08
0.0	1e-09	1.12e-08
-2.2e-09	1.7e-09	1.62e-08
1.9e-09	-0.0	1.24e-08
0.0	0.0	1.06e-08
-1.9e-09	0.0	1.24e-08
2.2e-09	-1.7e-09	1.62e-08
0.0	-1e-09	1.12e-08
-2.2e-09	-1.7e-09	1.62e-08

SCALARS	phi	float 1
LOOKUP_TABLE	default
0.0
0.0
0.0
0.0
0.0
0.0
0.0
0.0
0.0
8.5761763969
7.8125
7.0488236031
8.5344194952
7.8125
7.0905805048
8.5761763969
7.8125
7.0488236031
16.2479863668
15.625
15.0020136332
16.1579229819
15.625
15.0920770181
16.2479863668
15.625
15.0020136332

SCALARS	sig_11	float	1
LOOKUP_TABLE	default
454.906465027
446.1355010975
454.906465027
455.0174233878
437.3404029703
455.0174233878
454.906465027
446.1355010975
454.906465027
125.463341362
27.2161565006
125.463341362
41.5004597166
-12.3729609342
41.5004597166
125.463341362
27.2161565006
125.463341362
8.8001469867
-153.4546937351
8.8001469867
-128.7196725805
-193.3209283932
-128.7196725805
8.8001469867
-153.4546937351
8.8001469867

SCALARS	sig_22	float	1
LOOKUP_TABLE	default
443.5282333966
437.7184938619
443.5282333966
444.7284482357
430.012652213
444.7284482357
443.5282333966
437.7184938619
443.5282333966
95.0288502941
16.057665223
95.0288502941
11.314242986
-23.2831778746
11.314242986
95.0288502941
16.057665223
95.0288502941
19.6231382969
-77.3165183962
19.6231382969
-134.9243953773
-134.2104671612
-134.9243953773
19.6231382969
-77.3165183962
19.6231382969

SCALARS	sig_33	float	1
LOOKUP_TABLE	default
1253.1721826146
1231.2033862574
1253.1721826146
1256.8624268641
1215.5932992145
1256.8624268641
1253.1721826146
1231.2033862574
1253.1721826146
1264.3402679603
1032.1526142928
1264.3402679603
1083.1704637969
947.1452756511
1083.1704637969
1264.3402679603
1032.1526142928
1264.3402679603
1428.921039993
1011.9830940866
1428.921039993
1076.9730831977
871.6603996272
1076.9730831977
1428.921039993
1011.9830940866
1428.921039993

SCALARS vonMises	float	1
LOOKUP_TABLE	default
579.1358450125
563.2181337763
579.1358450125
576.2708857254
553.9958073469
576.2708857254
579.1358450125
563.2181337763
579.1358450125
826.5059598925
723.7694661151
826.5059598925
754.6243501589
687.6136126261
754.6243501589
826.5059598925
723.7694661151
826.5059598925
1095.0509356022
886.0076687339
1095.0509356022
932.2381359812
780.9658175289
932.2381359812
1095.0509356022
886.0076687339
1095.0509356022
