# vtk DataFile Version 2.0
Results
ASCII
DATASET UNSTRUCTURED_GRID
POINTS         27           float
0.0	0.0	0.0	
0.5	0.0	0.0	
1.0	0.0	0.0	
0.0	0.4	0.0	
0.5	0.4	0.0	
1.0	0.4	0.0	
0.0	0.8	0.0	
0.5	0.8	0.0	
1.0	0.8	0.0	
0.0	0.0	0.7	
0.5	0.0	0.7	
1.0	0.0	0.7	
0.0	0.4	0.7	
0.5	0.4	0.7	
1.0	0.4	0.7	
0.0	0.8	0.7	
0.5	0.8	0.7	
1.0	0.8	0.7	
0.0	0.0	1.4	
0.5	0.0	1.4	
1.0	0.0	1.4	
0.0	0.4	1.4	
0.5	0.4	1.4	
1.0	0.4	1.4	
0.0	0.8	1.4	
0.5	0.8	1.4	
1.0	0.8	1.4	

CELLS	8	72
 8	0	1	4	3	9	10	13	12	
 8	1	2	5	4	10	11	14	13	
 8	4	5	8	7	13	14	17	16	
 8	3	4	7	6	12	13	16	15	
 8	9	10	13	12	18	19	22	21	
 8	10	11	14	13	19	20	23	22	
 8	13	14	17	16	22	23	26	25	
 8	12	13	16	15	21	22	25	24	

CELL_TYPES	8
 12
 12
 12
 12
 12
 12
 12
 12

POINT_DATA	27
VECTORS	u 	float 
0.0	0.0	0.0
0.0	0.0	0.0
0.0	0.0	0.0
0.0	0.0	0.0
0.0	0.0	0.0
0.0	0.0	0.0
0.0	0.0	0.0
0.0	0.0	0.0
0.0	0.0	0.0
1.4e-09	1.3e-09	5.8e-09
0.0	1.2e-09	5.7e-09
-1.4e-09	1.3e-09	5.8e-09
1.4e-09	0.0	5.9e-09
0.0	0.0	5.5e-09
-1.4e-09	0.0	5.9e-09
1.4e-09	-1.3e-09	5.8e-09
0.0	-1.2e-09	5.7e-09
-1.4e-09	-1.3e-09	5.8e-09
2.2e-09	1.7e-09	1.62e-08
0.0	1e-09	1.12e-08
-2.2e-09	1.7e-09	1.62e-08
1.9e-09	0.0	1.24e-08
0.0	0.0	1.06e-08
-1.9e-09	0.0	1.24e-08
2.2e-09	-1.7e-09	1.62e-08
0.0	-1e-09	1.12e-08
-2.2e-09	-1.7e-09	1.62e-08

VECTORS	v 	float 
0.0	0.0	0.0
0.0	0.0	0.0
0.0	0.0	0.0
0.0	0.0	0.0
0.0	0.0	0.0
0.0	0.0	0.0
0.0	0.0	0.0
0.0	0.0	0.0
0.0	0.0	0.0
0.0	-0.0	0.0
0.0	-0.0	0.0
0.0	0.0	0.0
0.0	0.0	0.0
0.0	0.0	0.0
0.0	0.0	0.0
0.0	-0.0	0.0
0.0	0.0	0.0
0.0	0.0	0.0
0.0	0.0	-0.0
0.0	0.0	0.0
-0.0	0.0	-0.0
0.0	0.0	0.0
0.0	0.0	-0.0
0.0	0.0	0.0
0.0	0.0	-0.0
0.0	0.0	0.0
-0.0	0.0	0.0

VECTORS	a 	float 
0.0	0.0	0.0
0.0	0.0	0.0
0.0	0.0	0.0
0.0	0.0	0.0
0.0	0.0	0.0
0.0	0.0	0.0
0.0	0.0	0.0
0.0	0.0	0.0
0.0	0.0	0.0
0.0	0.0	0.0
0.0	-0.0	0.0
0.0	0.0	0.0
0.0	0.0	0.0
0.0	0.0	0.0
0.0	0.0	0.0
0.0	-0.0	0.0
0.0	0.0	0.0
0.0	0.0	0.0
0.0	0.0	0.0
0.0	0.0	0.0
-0.0	0.0	0.0
0.0	0.0	0.0
0.0	0.0	0.0
0.0	0.0	0.0
0.0	0.0	0.0
0.0	0.0	0.0
-0.0	0.0	0.0

SCALARS	phi	float 1
LOOKUP_TABLE	default
0.0
0.0
0.0
0.0
0.0
0.0
0.0
0.0
0.0
8.5761765036
7.8125000882
7.0488236561
8.5344196117
7.8125000919
7.0905805643
8.5761765036
7.8125000882
7.0488236561
16.2479866444
15.6250002062
15.0020138424
16.1579232342
15.6250001992
15.0920771983
16.2479866444
15.6250002062
15.0020138424

SCALARS	sig_11	float	1
LOOKUP_TABLE	default
454.9067690649
446.1358279135
454.9067690649
455.0177436948
437.340745905
455.0177436948
454.9067690649
446.1358279135
454.9067690649
125.4642653933
27.2170856284
125.4642653933
41.5013867833
-12.3720292394
41.5013867833
125.4642653933
27.2170856284
125.4642653933
8.8014394016
-153.4534070283
8.8014394016
-128.718387539
-193.3196499631
-128.718387539
8.8014394016
-153.4534070283
8.8014394016

SCALARS	sig_22	float	1
LOOKUP_TABLE	default
443.5285402297
437.7188221392
443.5285402297
444.7287717755
430.0129970163
444.7287717755
443.5285402297
437.7188221392
443.5285402297
95.0297820071
16.0585991739
95.0297820071
11.3151783154
-23.2822407815
11.3151783154
95.0297820071
16.0585991739
95.0297820071
19.6244294064
-77.3152305286
19.6244294064
-134.9231116664
-134.2091875772
-134.9231116664
19.6244294064
-77.3152305286
19.6244294064

SCALARS	sig_33	float	1
LOOKUP_TABLE	default
1253.1725430829
1231.2037964201
1253.1725430829
1256.8628228438
1215.5937445568
1256.8628228438
1253.1725430829
1231.2037964201
1253.1725430829
1264.341169284
1032.1535286461
1264.341169284
1083.1713727135
947.1461967641
1083.1713727135
1264.341169284
1032.1535286461
1264.341169284
1428.9223134953
1011.9843524485
1428.9223134953
1076.9743402466
871.6616396647
1076.9743402466
1428.9223134953
1011.9843524485
1428.9223134953

SCALARS vonMises	float	1
LOOKUP_TABLE	default
579.1358620488
563.2181815438
579.1358620488
576.2709253446
553.995876772
576.2709253446
579.1358620488
563.2181815438
579.1358620488
826.5059349472
723.7694493022
826.5059349472
754.6243304215
687.6136002453
754.6243304215
826.5059349472
723.7694493022
826.5059349472
1095.050931417
886.0076484678
1095.050931417
932.2381189391
780.9657865816
932.2381189391
1095.050931417
886.0076484678
1095.050931417
