# vtk DataFile Version 2.0
Results
ASCII
DATASET UNSTRUCTURED_GRID
POINTS         27           float
0.0	0.0	0.0	
0.5	0.0	0.0	
1.0	0.0	0.0	
0.0	0.4	0.0	
0.5	0.4	0.0	
1.0	0.4	0.0	
0.0	0.8	0.0	
0.5	0.8	0.0	
1.0	0.8	0.0	
0.0	0.0	0.7	
0.5	0.0	0.7	
1.0	0.0	0.7	
0.0	0.4	0.7	
0.5	0.4	0.7	
1.0	0.4	0.7	
0.0	0.8	0.7	
0.5	0.8	0.7	
1.0	0.8	0.7	
0.0	0.0	1.4	
0.5	0.0	1.4	
1.0	0.0	1.4	
0.0	0.4	1.4	
0.5	0.4	1.4	
1.0	0.4	1.4	
0.0	0.8	1.4	
0.5	0.8	1.4	
1.0	0.8	1.4	

CELLS	8	72
 8	0	1	4	3	9	10	13	12	
 8	1	2	5	4	10	11	14	13	
 8	4	5	8	7	13	14	17	16	
 8	3	4	7	6	12	13	16	15	
 8	9	10	13	12	18	19	22	21	
 8	10	11	14	13	19	20	23	22	
 8	13	14	17	16	22	23	26	25	
 8	12	13	16	15	21	22	25	24	

CELL_TYPES	8
 12
 12
 12
 12
 12
 12
 12
 12

POINT_DATA	27
VECTORS	u 	float 
0.0	0.0	0.0
0.0	0.0	0.0
0.0	0.0	0.0
0.0	0.0	0.0
0.0	0.0	0.0
0.0	0.0	0.0
0.0	0.0	0.0
0.0	0.0	0.0
0.0	0.0	0.0
1.3e-09	1.3e-09	5.9e-09
0.0	1.2e-09	5.8e-09
-1.3e-09	1.3e-09	5.9e-09
1.4e-09	0.0	6e-09
0.0	0.0	5.6e-09
-1.3e-09	0.0	6e-09
1.3e-09	-1.3e-09	5.9e-09
0.0	-1.2e-09	5.8e-09
-1.3e-09	-1.3e-09	5.9e-09
2.1e-09	1.7e-09	1.65e-08
0.0	1e-09	1.14e-08
-2.1e-09	1.7e-09	1.64e-08
1.8e-09	0.0	1.26e-08
0.0	0.0	1.08e-08
-1.8e-09	0.0	1.26e-08
2.1e-09	-1.6e-09	1.65e-08
0.0	-9e-10	1.14e-08
-2e-09	-1.6e-09	1.64e-08

VECTORS	v 	float 
0.0	0.0	0.0
0.0	0.0	0.0
0.0	0.0	0.0
0.0	0.0	0.0
0.0	0.0	0.0
0.0	0.0	0.0
0.0	0.0	0.0
0.0	0.0	0.0
0.0	0.0	0.0
-3e-10	-3e-10	-1.5e-09
-0.0	-3e-10	-1.5e-09
3e-10	-3e-10	-1.5e-09
-3e-10	-0.0	-1.5e-09
-0.0	-0.0	-1.4e-09
3e-10	-0.0	-1.5e-09
-3e-10	3e-10	-1.5e-09
-0.0	3e-10	-1.4e-09
3e-10	3e-10	-1.5e-09
-5e-10	-4e-10	-4.1e-09
-0.0	-2e-10	-2.9e-09
5e-10	-4e-10	-4.1e-09
-5e-10	-0.0	-3.1e-09
-0.0	-0.0	-2.7e-09
4e-10	-0.0	-3.1e-09
-5e-10	4e-10	-4.1e-09
-0.0	2e-10	-2.9e-09
5e-10	4e-10	-4.1e-09

VECTORS	a 	float 
0.0	0.0	0.0
0.0	0.0	0.0
0.0	0.0	0.0
0.0	0.0	0.0
0.0	0.0	0.0
0.0	0.0	0.0
0.0	0.0	0.0
0.0	0.0	0.0
0.0	0.0	0.0
-1e-09	-1e-09	-4.4e-09
-0.0	-9e-10	-4.4e-09
1e-09	-1e-09	-4.4e-09
-1e-09	-0.0	-4.5e-09
-0.0	-0.0	-4.2e-09
1e-09	-0.0	-4.5e-09
-1e-09	9e-10	-4.4e-09
-0.0	9e-10	-4.3e-09
1e-09	9e-10	-4.4e-09
-1.6e-09	-1.3e-09	-1.24e-08
-0.0	-7e-10	-8.6e-09
1.5e-09	-1.3e-09	-1.23e-08
-1.4e-09	-0.0	-9.4e-09
-0.0	-0.0	-8.1e-09
1.3e-09	-0.0	-9.4e-09
-1.6e-09	1.2e-09	-1.23e-08
-0.0	7e-10	-8.6e-09
1.5e-09	1.2e-09	-1.23e-08

SCALARS	phi	float 1
LOOKUP_TABLE	default
0.0
0.0
0.0
0.0
0.0
0.0
0.0
0.0
0.0
7.9725409356
6.9423174936
6.2888142757
7.0985902626
6.2579042037
5.5061289722
6.4571458798
5.6106842431
4.7889978145
14.281160976
13.6011791866
12.8813488924
13.7401300099
13.2125916646
12.5149716082
13.129552859
12.7535848074
11.7170507823

SCALARS	sig_11	float	1
LOOKUP_TABLE	default
432.2127559377
426.6836200543
436.5759267494
435.0528129813
420.2872666294
439.2346498505
436.243351193
430.3334178469
440.5635249539
125.8637527425
27.6316590714
126.1000779428
41.8157722176
-12.0988924195
41.992484145
126.0486470814
27.6105707205
126.292757955
9.8655493531
-153.2609495448
10.0344891655
-128.5028192972
-193.8542295232
-128.3706816859
9.9412814842
-153.3296587734
10.1291425762

SCALARS	sig_22	float	1
LOOKUP_TABLE	default
421.0508202492
418.4045549473
425.309064553
424.9876057962
413.1147795414
429.0529945077
425.0839129159
422.0881189466
429.2992562825
95.9781912185
16.869739655
95.9358737894
12.1820953745
-22.5779537255
12.044494962
96.1696582336
16.9528016564
96.1350486697
20.3050869645
-77.0883619666
20.5859214692
-135.1963544811
-134.7963163679
-134.9704723539
20.3777993796
-77.1061944158
20.6754543832

SCALARS	sig_33	float	1
LOOKUP_TABLE	default
1244.770933417
1225.2716592895
1246.1807900276
1250.4956633921
1211.4215247029
1251.7373108574
1246.3804653935
1226.5406061368
1247.7606582177
1267.8042212172
1035.2920272315
1267.443006489
1086.2373914418
949.9121459413
1085.8760132429
1267.6496905993
1035.0133019493
1267.2911581293
1429.6869465537
1011.3114958601
1430.2963386503
1076.172298802
869.6742320217
1076.9002688421
1430.1236327693
1011.7341176511
1430.7424324941

SCALARS vonMises	float	1
LOOKUP_TABLE	default
588.118742023
572.2369495929
586.0462388682
585.2194819866
562.9306332809
583.1145741173
586.3588523808
570.4634226433
584.2935034479
827.949955466
725.2785206103
827.7186148964
756.1121128601
689.1145426334
755.8925649664
827.7979456894
725.1077907398
827.562960762
1094.6227112969
885.2364122352
1095.020328818
931.593284665
779.9064318532
932.0269137964
1095.0243814895
885.6377580862
1095.4096339224
