# vtk DataFile Version 2.0
Results
ASCII
DATASET UNSTRUCTURED_GRID
POINTS         27           float
0.0	0.0	0.0	
0.5	0.0	0.0	
1.0	0.0	0.0	
0.0	0.4	0.0	
0.5	0.4	0.0	
1.0	0.4	0.0	
0.0	0.8	0.0	
0.5	0.8	0.0	
1.0	0.8	0.0	
0.0	0.0	0.7	
0.5	0.0	0.7	
1.0	0.0	0.7	
0.0	0.4	0.7	
0.5	0.4	0.7	
1.0	0.4	0.7	
0.0	0.8	0.7	
0.5	0.8	0.7	
1.0	0.8	0.7	
0.0	0.0	1.4	
0.5	0.0	1.4	
1.0	0.0	1.4	
0.0	0.4	1.4	
0.5	0.4	1.4	
1.0	0.4	1.4	
0.0	0.8	1.4	
0.5	0.8	1.4	
1.0	0.8	1.4	

CELLS	8	72
 8	0	1	4	3	9	10	13	12	
 8	1	2	5	4	10	11	14	13	
 8	4	5	8	7	13	14	17	16	
 8	3	4	7	6	12	13	16	15	
 8	9	10	13	12	18	19	22	21	
 8	10	11	14	13	19	20	23	22	
 8	13	14	17	16	22	23	26	25	
 8	12	13	16	15	21	22	25	24	

CELL_TYPES	8
 12
 12
 12
 12
 12
 12
 12
 12

POINT_DATA	27
VECTORS	u 	float 
0.0	0.0	0.0
0.0	0.0	0.0
0.0	0.0	0.0
0.0	0.0	0.0
0.0	0.0	0.0
0.0	0.0	0.0
0.0	0.0	0.0
0.0	0.0	0.0
0.0	0.0	0.0
1.3e-09	1.3e-09	5.9e-09
0.0	1.2e-09	5.8e-09
-1.3e-09	1.3e-09	5.9e-09
1.4e-09	0.0	6e-09
0.0	0.0	5.6e-09
-1.3e-09	0.0	6e-09
1.3e-09	-1.3e-09	5.9e-09
0.0	-1.2e-09	5.8e-09
-1.3e-09	-1.3e-09	5.9e-09
2.1e-09	1.7e-09	1.65e-08
0.0	1e-09	1.14e-08
-2.1e-09	1.7e-09	1.64e-08
1.8e-09	0.0	1.26e-08
0.0	0.0	1.08e-08
-1.8e-09	0.0	1.26e-08
2.1e-09	-1.6e-09	1.65e-08
0.0	-9e-10	1.14e-08
-2e-09	-1.6e-09	1.64e-08

VECTORS	v 	float 
0.0	0.0	0.0
0.0	0.0	0.0
0.0	0.0	0.0
0.0	0.0	0.0
0.0	0.0	0.0
0.0	0.0	0.0
0.0	0.0	0.0
0.0	0.0	0.0
0.0	0.0	0.0
0.0	0.0	0.0
0.0	0.0	0.0
-0.0	-0.0	0.0
-0.0	0.0	0.0
0.0	0.0	0.0
0.0	0.0	0.0
0.0	0.0	0.0
0.0	0.0	0.0
0.0	-0.0	0.0
0.0	0.0	-0.0
0.0	0.0	0.0
0.0	0.0	0.0
0.0	0.0	0.0
0.0	0.0	0.0
0.0	0.0	0.0
0.0	0.0	-0.0
-0.0	0.0	0.0
0.0	0.0	0.0

VECTORS	a 	float 
0.0	0.0	0.0
0.0	0.0	0.0
0.0	0.0	0.0
0.0	0.0	0.0
0.0	0.0	0.0
0.0	0.0	0.0
0.0	0.0	0.0
0.0	0.0	0.0
0.0	0.0	0.0
0.0	0.0	0.0
0.0	0.0	0.0
0.0	0.0	0.0
0.0	0.0	0.0
0.0	0.0	0.0
0.0	0.0	0.0
0.0	0.0	0.0
0.0	0.0	0.0
0.0	0.0	0.0
0.0	0.0	-0.0
0.0	0.0	0.0
0.0	0.0	0.0
0.0	0.0	0.0
0.0	0.0	0.0
0.0	0.0	0.0
0.0	0.0	-0.0
-0.0	0.0	0.0
0.0	0.0	0.0

SCALARS	phi	float 1
LOOKUP_TABLE	default
0.0
0.0
0.0
0.0
0.0
0.0
0.0
0.0
0.0
7.9725409356
6.9423174936
6.2888142757
7.0985902626
6.2579042037
5.5061289722
6.4571458798
5.6106842431
4.7889978145
14.281160976
13.6011791866
12.8813488924
13.7401300099
13.2125916646
12.5149716082
13.129552859
12.7535848074
11.7170507822

SCALARS	sig_11	float	1
LOOKUP_TABLE	default
432.212755974
426.6836201243
436.5759268299
435.0528130518
420.2872667153
439.2346499417
436.2433512768
430.3334179419
440.5635250636
125.8637529505
27.6316592932
126.100078171
41.8157724539
-12.0988921901
41.9924843611
126.0486473395
27.6105709543
126.2927581589
9.865549971
-153.2609491515
10.0344894098
-128.5028188446
-193.8542292262
-128.3706815473
9.9412818744
-153.3296585726
10.1291425054

SCALARS	sig_22	float	1
LOOKUP_TABLE	default
421.0508202833
418.4045550163
425.3090646274
424.9876058677
413.1147796282
429.0529945989
425.0839130074
422.0881190446
429.2992563952
95.9781914216
16.8697398745
95.9358740115
12.1820956125
-22.5779534935
12.0444951784
96.1696585021
16.9528018987
96.1350488797
20.3050875914
-77.0883615709
20.5859217822
-135.1963540339
-134.7963160705
-134.970472215
20.3777996995
-77.1061942149
20.6754542984

SCALARS	sig_33	float	1
LOOKUP_TABLE	default
1244.7709334634
1225.2716593787
1246.1807901156
1250.4956634827
1211.4215248122
1251.7373109641
1246.380465494
1226.5406062518
1247.7606583496
1267.8042214393
1035.2920274533
1267.4430067019
1086.2373916807
949.9121461646
1085.8760134411
1267.6496908484
1035.0133021705
1267.2911583123
1429.686947107
1011.311496229
1430.2963389284
1076.1722992188
869.67423231
1076.9002690037
1430.1236331139
1011.7341178656
1430.7424324876

SCALARS vonMises	float	1
LOOKUP_TABLE	default
588.1187420278
572.2369496042
586.0462388704
585.2194819976
562.9306332965
583.1145741252
586.3588523846
570.4634226538
584.2935034559
827.949955479
725.2785206104
827.7186148861
756.1121128608
689.1145426275
755.892564952
827.7979456774
725.1077907261
827.5629607402
1094.6227112664
885.2364122221
1095.0203288186
931.5932846472
779.9064318455
932.0269138055
1095.0243814837
885.6377580886
1095.4096339516
