# vtk DataFile Version 2.0
Results
ASCII
DATASET UNSTRUCTURED_GRID
POINTS         27           float
0.0	0.0	0.0	
0.5	0.0	0.0	
1.0	0.0	0.0	
0.0	0.4	0.0	
0.5	0.4	0.0	
1.0	0.4	0.0	
0.0	0.8	0.0	
0.5	0.8	0.0	
1.0	0.8	0.0	
0.0	0.0	0.7	
0.5	0.0	0.7	
1.0	0.0	0.7	
0.0	0.4	0.7	
0.5	0.4	0.7	
1.0	0.4	0.7	
0.0	0.8	0.7	
0.5	0.8	0.7	
1.0	0.8	0.7	
0.0	0.0	1.4	
0.5	0.0	1.4	
1.0	0.0	1.4	
0.0	0.4	1.4	
0.5	0.4	1.4	
1.0	0.4	1.4	
0.0	0.8	1.4	
0.5	0.8	1.4	
1.0	0.8	1.4	

CELLS	8	72
 8	0	1	4	3	9	10	13	12	
 8	1	2	5	4	10	11	14	13	
 8	4	5	8	7	13	14	17	16	
 8	3	4	7	6	12	13	16	15	
 8	9	10	13	12	18	19	22	21	
 8	10	11	14	13	19	20	23	22	
 8	13	14	17	16	22	23	26	25	
 8	12	13	16	15	21	22	25	24	

CELL_TYPES	8
 12
 12
 12
 12
 12
 12
 12
 12

POINT_DATA	27
VECTORS	u 	float 
0.0	0.0	0.0
0.0	0.0	0.0
0.0	0.0	0.0
0.0	0.0	0.0
0.0	0.0	0.0
0.0	0.0	0.0
0.0	0.0	0.0
0.0	0.0	0.0
0.0	0.0	0.0
1.3e-09	1.3e-09	5.9e-09
0.0	1.2e-09	5.8e-09
-1.3e-09	1.3e-09	5.9e-09
1.4e-09	0.0	6e-09
0.0	0.0	5.6e-09
-1.3e-09	0.0	6e-09
1.3e-09	-1.3e-09	5.9e-09
0.0	-1.2e-09	5.8e-09
-1.3e-09	-1.3e-09	5.9e-09
2.1e-09	1.7e-09	1.65e-08
0.0	1e-09	1.14e-08
-2.1e-09	1.7e-09	1.64e-08
1.8e-09	0.0	1.26e-08
0.0	0.0	1.08e-08
-1.8e-09	0.0	1.26e-08
2.1e-09	-1.6e-09	1.65e-08
0.0	-9e-10	1.14e-08
-2e-09	-1.6e-09	1.64e-08

VECTORS	v 	float 
0.0	0.0	0.0
0.0	0.0	0.0
0.0	0.0	0.0
0.0	0.0	0.0
0.0	0.0	0.0
0.0	0.0	0.0
0.0	0.0	0.0
0.0	0.0	0.0
0.0	0.0	0.0
-5e-10	-5e-10	-2.2e-09
-0.0	-4e-10	-2.2e-09
5e-10	-5e-10	-2.2e-09
-5e-10	-0.0	-2.3e-09
-0.0	-0.0	-2.1e-09
5e-10	-0.0	-2.3e-09
-5e-10	5e-10	-2.2e-09
-0.0	4e-10	-2.2e-09
5e-10	5e-10	-2.2e-09
-8e-10	-6e-10	-6.2e-09
-0.0	-4e-10	-4.3e-09
8e-10	-6e-10	-6.2e-09
-7e-10	-0.0	-4.7e-09
-0.0	-0.0	-4.1e-09
7e-10	-0.0	-4.7e-09
-8e-10	6e-10	-6.2e-09
-0.0	3e-10	-4.3e-09
8e-10	6e-10	-6.2e-09

VECTORS	a 	float 
0.0	0.0	0.0
0.0	0.0	0.0
0.0	0.0	0.0
0.0	0.0	0.0
0.0	0.0	0.0
0.0	0.0	0.0
0.0	0.0	0.0
0.0	0.0	0.0
0.0	0.0	0.0
-2e-10	-2e-10	-7e-10
-0.0	-1e-10	-7e-10
2e-10	-2e-10	-7e-10
-2e-10	-0.0	-8e-10
-0.0	-0.0	-7e-10
2e-10	-0.0	-8e-10
-2e-10	2e-10	-7e-10
-0.0	1e-10	-7e-10
2e-10	2e-10	-7e-10
-3e-10	-2e-10	-2.1e-09
-0.0	-1e-10	-1.4e-09
3e-10	-2e-10	-2.1e-09
-2e-10	-0.0	-1.6e-09
-0.0	-0.0	-1.4e-09
2e-10	-0.0	-1.6e-09
-3e-10	2e-10	-2.1e-09
-0.0	1e-10	-1.4e-09
3e-10	2e-10	-2.1e-09

SCALARS	phi	float 1
LOOKUP_TABLE	default
0.0
0.0
0.0
0.0
0.0
0.0
0.0
0.0
0.0
7.9725409356
6.9423174936
6.2888142757
7.0985902626
6.2579042037
5.5061289722
6.4571458798
5.6106842431
4.7889978145
14.281160976
13.6011791866
12.8813488924
13.7401300099
13.2125916646
12.5149716082
13.129552859
12.7535848074
11.7170507822

SCALARS	sig_11	float	1
LOOKUP_TABLE	default
432.2127559719
426.6836201218
436.5759268274
435.0528130493
420.2872667127
439.2346499391
436.2433512742
430.3334179392
440.5635250609
125.863752943
27.6316592861
126.1000781644
41.8157724464
-12.0988921968
41.9924843552
126.0486473323
27.6105709479
126.2927581535
9.8655499569
-153.2609491618
10.0344894027
-128.5028188558
-193.8542292338
-128.3706815513
9.9412818651
-153.3296585776
10.1291425053

SCALARS	sig_22	float	1
LOOKUP_TABLE	default
421.0508202812
418.4045550139
425.309064625
424.9876058652
413.1147796256
429.0529945963
425.0839130048
422.0881190419
429.2992563925
95.978191414
16.8697398674
95.9358740049
12.182095605
-22.5779535003
12.0444951724
96.1696584947
16.9528018921
96.1350488742
20.3050875771
-77.0883615812
20.5859217748
-135.1963540452
-134.7963160781
-134.9704722187
20.3777996905
-77.1061942199
20.6754542987

SCALARS	sig_33	float	1
LOOKUP_TABLE	default
1244.7709334608
1225.2716593756
1246.1807901129
1250.4956634796
1211.4215248089
1251.7373109611
1246.380465491
1226.5406062486
1247.7606583464
1267.8042214317
1035.2920274464
1267.4430066956
1086.2373916733
949.9121461582
1085.8760134356
1267.6496908414
1035.0133021646
1267.2911583074
1429.6869470936
1011.3114962191
1430.296338921
1076.1722992079
869.6742323025
1076.9002689994
1430.1236331048
1011.7341178602
1430.7424324864

SCALARS vonMises	float	1
LOOKUP_TABLE	default
588.1187420276
572.2369496039
586.0462388703
585.2194819973
562.9306332961
583.1145741249
586.3588523844
570.4634226535
584.2935034557
827.949955479
725.2785206105
827.7186148864
756.1121128609
689.1145426277
755.8925649525
827.7979456777
725.1077907265
827.5629607407
1094.6227112667
885.2364122223
1095.0203288185
931.5932846474
779.9064318456
932.0269138053
1095.0243814837
885.6377580885
1095.409633951
