# vtk DataFile Version 2.0
Results
ASCII
DATASET UNSTRUCTURED_GRID
POINTS         27           float
0.0	0.0	0.0	
0.5	0.0	0.0	
1.0	0.0	0.0	
0.0	0.4	0.0	
0.5	0.4	0.0	
1.0	0.4	0.0	
0.0	0.8	0.0	
0.5	0.8	0.0	
1.0	0.8	0.0	
0.0	0.0	0.7	
0.5	0.0	0.7	
1.0	0.0	0.7	
0.0	0.4	0.7	
0.5	0.4	0.7	
1.0	0.4	0.7	
0.0	0.8	0.7	
0.5	0.8	0.7	
1.0	0.8	0.7	
0.0	0.0	1.4	
0.5	0.0	1.4	
1.0	0.0	1.4	
0.0	0.4	1.4	
0.5	0.4	1.4	
1.0	0.4	1.4	
0.0	0.8	1.4	
0.5	0.8	1.4	
1.0	0.8	1.4	

CELLS	8	72
 8	0	1	4	3	9	10	13	12	
 8	1	2	5	4	10	11	14	13	
 8	4	5	8	7	13	14	17	16	
 8	3	4	7	6	12	13	16	15	
 8	9	10	13	12	18	19	22	21	
 8	10	11	14	13	19	20	23	22	
 8	13	14	17	16	22	23	26	25	
 8	12	13	16	15	21	22	25	24	

CELL_TYPES	8
 12
 12
 12
 12
 12
 12
 12
 12

POINT_DATA	27
VECTORS	u 	float 
0.0	0.0	0.0
0.0	0.0	0.0
0.0	0.0	0.0
0.0	0.0	0.0
0.0	0.0	0.0
0.0	0.0	0.0
0.0	0.0	0.0
0.0	0.0	0.0
0.0	0.0	0.0
1.3e-09	1.3e-09	5.9e-09
0.0	1.2e-09	5.8e-09
-1.3e-09	1.3e-09	5.9e-09
1.4e-09	0.0	6e-09
0.0	0.0	5.6e-09
-1.3e-09	0.0	6e-09
1.3e-09	-1.3e-09	5.9e-09
0.0	-1.2e-09	5.8e-09
-1.3e-09	-1.3e-09	5.9e-09
2.1e-09	1.7e-09	1.65e-08
0.0	1e-09	1.14e-08
-2.1e-09	1.7e-09	1.64e-08
1.8e-09	0.0	1.26e-08
0.0	0.0	1.08e-08
-1.8e-09	0.0	1.26e-08
2.1e-09	-1.6e-09	1.65e-08
0.0	-9e-10	1.14e-08
-2e-09	-1.6e-09	1.64e-08

VECTORS	v 	float 
0.0	0.0	0.0
0.0	0.0	0.0
0.0	0.0	0.0
0.0	0.0	0.0
0.0	0.0	0.0
0.0	0.0	0.0
0.0	0.0	0.0
0.0	0.0	0.0
0.0	0.0	0.0
-1e-10	-1e-10	-4e-10
-0.0	-1e-10	-4e-10
1e-10	-1e-10	-4e-10
-1e-10	-0.0	-4e-10
-0.0	-0.0	-3e-10
1e-10	-0.0	-4e-10
-1e-10	1e-10	-4e-10
-0.0	1e-10	-4e-10
1e-10	1e-10	-4e-10
-1e-10	-1e-10	-1e-09
-0.0	-1e-10	-7e-10
1e-10	-1e-10	-1e-09
-1e-10	-0.0	-8e-10
-0.0	-0.0	-7e-10
1e-10	-0.0	-8e-10
-1e-10	1e-10	-1e-09
-0.0	1e-10	-7e-10
1e-10	1e-10	-1e-09

VECTORS	a 	float 
0.0	0.0	0.0
0.0	0.0	0.0
0.0	0.0	0.0
0.0	0.0	0.0
0.0	0.0	0.0
0.0	0.0	0.0
0.0	0.0	0.0
0.0	0.0	0.0
0.0	0.0	0.0
4e-10	4e-10	1.9e-09
0.0	4e-10	1.8e-09
-4e-10	4e-10	1.8e-09
4e-10	0.0	1.9e-09
0.0	0.0	1.7e-09
-4e-10	0.0	1.9e-09
4e-10	-4e-10	1.8e-09
0.0	-4e-10	1.8e-09
-4e-10	-4e-10	1.8e-09
7e-10	5e-10	5.1e-09
0.0	3e-10	3.6e-09
-6e-10	5e-10	5.1e-09
6e-10	0.0	3.9e-09
0.0	0.0	3.4e-09
-6e-10	0.0	3.9e-09
7e-10	-5e-10	5.1e-09
0.0	-3e-10	3.6e-09
-6e-10	-5e-10	5.1e-09

SCALARS	phi	float 1
LOOKUP_TABLE	default
0.0
0.0
0.0
0.0
0.0
0.0
0.0
0.0
0.0
7.9725409356
6.9423174936
6.2888142757
7.0985902626
6.2579042037
5.5061289722
6.4571458798
5.6106842431
4.7889978145
14.281160976
13.6011791866
12.8813488924
13.7401300099
13.2125916646
12.5149716082
13.129552859
12.7535848074
11.7170507822

SCALARS	sig_11	float	1
LOOKUP_TABLE	default
432.2127559739
426.6836201242
436.5759268298
435.0528130517
420.2872667152
439.2346499416
436.2433512767
430.3334179418
440.5635250635
125.8637529503
27.631659293
126.1000781708
41.8157724537
-12.0988921903
41.992484361
126.0486473393
27.6105709541
126.2927581588
9.8655499707
-153.2609491518
10.0344894096
-128.5028188449
-193.8542292264
-128.3706815474
9.9412818742
-153.3296585727
10.1291425054

SCALARS	sig_22	float	1
LOOKUP_TABLE	default
421.0508202832
418.4045550162
425.3090646273
424.9876058676
413.1147796281
429.0529945988
425.0839130074
422.0881190445
429.2992563952
95.9781914214
16.8697398743
95.9358740113
12.1820956123
-22.5779534937
12.0444951782
96.1696585019
16.9528018985
96.1350488796
20.305087591
-77.0883615712
20.585921782
-135.1963540342
-134.7963160707
-134.9704722151
20.3777996992
-77.106194215
20.6754542984

SCALARS	sig_33	float	1
LOOKUP_TABLE	default
1244.7709334633
1225.2716593786
1246.1807901156
1250.4956634826
1211.4215248121
1251.7373109641
1246.3804654939
1226.5406062517
1247.7606583495
1267.804221439
1035.2920274531
1267.4430067017
1086.2373916805
949.9121461645
1085.8760134409
1267.6496908482
1035.0133021703
1267.2911583121
1429.6869471067
1011.3114962288
1430.2963389282
1076.1722992185
869.6742323098
1076.9002690035
1430.1236331137
1011.7341178654
1430.7424324876

SCALARS vonMises	float	1
LOOKUP_TABLE	default
588.1187420278
572.2369496042
586.0462388704
585.2194819976
562.9306332965
583.1145741252
586.3588523846
570.4634226538
584.2935034559
827.949955479
725.2785206104
827.7186148861
756.1121128608
689.1145426275
755.892564952
827.7979456774
725.1077907261
827.5629607402
1094.6227112664
885.2364122221
1095.0203288186
931.5932846472
779.9064318455
932.0269138055
1095.0243814837
885.6377580886
1095.4096339515
