# vtk DataFile Version 2.0
Results
ASCII
DATASET UNSTRUCTURED_GRID
POINTS         27           float
0.0	0.0	0.0	
0.5	0.0	0.0	
1.0	0.0	0.0	
0.0	0.4	0.0	
0.5	0.4	0.0	
1.0	0.4	0.0	
0.0	0.8	0.0	
0.5	0.8	0.0	
1.0	0.8	0.0	
0.0	0.0	0.7	
0.5	0.0	0.7	
1.0	0.0	0.7	
0.0	0.4	0.7	
0.5	0.4	0.7	
1.0	0.4	0.7	
0.0	0.8	0.7	
0.5	0.8	0.7	
1.0	0.8	0.7	
0.0	0.0	1.4	
0.5	0.0	1.4	
1.0	0.0	1.4	
0.0	0.4	1.4	
0.5	0.4	1.4	
1.0	0.4	1.4	
0.0	0.8	1.4	
0.5	0.8	1.4	
1.0	0.8	1.4	

CELLS	8	72
 8	0	1	4	3	9	10	13	12	
 8	1	2	5	4	10	11	14	13	
 8	4	5	8	7	13	14	17	16	
 8	3	4	7	6	12	13	16	15	
 8	9	10	13	12	18	19	22	21	
 8	10	11	14	13	19	20	23	22	
 8	13	14	17	16	22	23	26	25	
 8	12	13	16	15	21	22	25	24	

CELL_TYPES	8
 12
 12
 12
 12
 12
 12
 12
 12

POINT_DATA	27
VECTORS	u 	float 
0.0	0.0	0.0
0.0	0.0	0.0
0.0	0.0	0.0
0.0	0.0	0.0
0.0	0.0	0.0
0.0	0.0	0.0
0.0	0.0	0.0
0.0	0.0	0.0
0.0	0.0	0.0
1.3e-09	1.3e-09	5.9e-09
0.0	1.2e-09	5.8e-09
-1.3e-09	1.3e-09	5.9e-09
1.4e-09	0.0	6e-09
0.0	0.0	5.6e-09
-1.3e-09	0.0	6e-09
1.3e-09	-1.3e-09	5.9e-09
0.0	-1.2e-09	5.8e-09
-1.3e-09	-1.3e-09	5.9e-09
2.1e-09	1.7e-09	1.65e-08
0.0	1e-09	1.14e-08
-2.1e-09	1.7e-09	1.64e-08
1.8e-09	0.0	1.26e-08
0.0	0.0	1.08e-08
-1.8e-09	0.0	1.26e-08
2.1e-09	-1.6e-09	1.65e-08
0.0	-9e-10	1.14e-08
-2e-09	-1.6e-09	1.64e-08

VECTORS	v 	float 
0.0	0.0	0.0
0.0	0.0	0.0
0.0	0.0	0.0
0.0	0.0	0.0
0.0	0.0	0.0
0.0	0.0	0.0
0.0	0.0	0.0
0.0	0.0	0.0
0.0	0.0	0.0
6e-10	6e-10	3e-09
0.0	6e-10	2.9e-09
-6e-10	6e-10	2.9e-09
7e-10	0.0	3e-09
0.0	0.0	2.8e-09
-7e-10	0.0	3e-09
7e-10	-6e-10	3e-09
0.0	-6e-10	2.9e-09
-6e-10	-6e-10	2.9e-09
1.1e-09	9e-10	8.2e-09
0.0	5e-10	5.7e-09
-1e-09	9e-10	8.2e-09
9e-10	0.0	6.3e-09
0.0	0.0	5.4e-09
-9e-10	0.0	6.3e-09
1.1e-09	-8e-10	8.2e-09
0.0	-4e-10	5.7e-09
-1e-09	-8e-10	8.2e-09

VECTORS	a 	float 
0.0	0.0	0.0
0.0	0.0	0.0
0.0	0.0	0.0
0.0	0.0	0.0
0.0	0.0	0.0
0.0	0.0	0.0
0.0	0.0	0.0
0.0	0.0	0.0
0.0	0.0	0.0
-6e-10	-6e-10	-3e-09
-0.0	-6e-10	-2.9e-09
6e-10	-6e-10	-2.9e-09
-7e-10	-0.0	-3e-09
-0.0	-0.0	-2.8e-09
7e-10	-0.0	-3e-09
-7e-10	6e-10	-3e-09
-0.0	6e-10	-2.9e-09
6e-10	6e-10	-2.9e-09
-1.1e-09	-9e-10	-8.2e-09
-0.0	-5e-10	-5.7e-09
1e-09	-9e-10	-8.2e-09
-9e-10	-0.0	-6.3e-09
-0.0	-0.0	-5.4e-09
9e-10	-0.0	-6.3e-09
-1.1e-09	8e-10	-8.2e-09
-0.0	4e-10	-5.7e-09
1e-09	8e-10	-8.2e-09

SCALARS	phi	float 1
LOOKUP_TABLE	default
0.0
0.0
0.0
0.0
0.0
0.0
0.0
0.0
0.0
7.9725409352
6.9423174936
6.2888142761
7.0985902624
6.257904204
5.506128973
6.4571458801
5.6106842438
4.7889978157
14.2811609757
13.6011791874
12.8813488935
13.7401300106
13.2125916659
12.5149716096
13.1295528601
12.7535848089
11.7170507833

SCALARS	sig_11	float	1
LOOKUP_TABLE	default
432.2127481439
426.6836113424
436.5759192193
435.0528044156
420.2872575102
439.2346414923
436.2433436234
430.3334093039
440.5635175861
125.8637370591
27.6316451781
126.1000628024
41.8157578899
-12.0989054284
41.9924700994
126.048631885
27.6105570561
126.2927428142
9.8655244024
-153.2609702345
10.0344639156
-128.5028405406
-193.8542477748
-128.3707036862
9.9412564946
-153.3296799817
10.1291162008

SCALARS	sig_22	float	1
LOOKUP_TABLE	default
421.050812531
418.4045464389
425.3090570949
424.9875972671
413.1147705838
429.0529861829
425.0839054459
422.0881106225
429.2992490055
95.9781756546
16.8697264945
95.9358587688
12.182080905
-22.5779662707
12.0444807639
96.1696432098
16.9527887623
96.1350336793
20.3050614455
-77.0883817187
20.5858957147
-135.1963771961
-134.7963345845
-134.9704958377
20.3777737306
-77.1062147228
20.6754273681

SCALARS	sig_33	float	1
LOOKUP_TABLE	default
1244.7709171336
1225.2716407937
1246.1807741813
1250.4956451952
1211.4215051438
1251.737293062
1246.3804494925
1226.540587987
1247.7606427556
1267.8041918016
1035.2920008065
1267.4429775799
1086.2373638028
949.9121204205
1085.875985878
1267.6496616579
1035.0132757759
1267.2911292936
1429.6869029047
1011.3114603838
1430.2962948879
1076.1722606289
869.6741994539
1076.9002301143
1430.1235891336
1011.7340817916
1430.7423878305

SCALARS vonMises	float	1
LOOKUP_TABLE	default
588.118736001
572.2369426008
586.0462329705
585.2194751813
562.9306258361
583.1145674586
586.3588464676
570.4634157822
584.2934977094
827.949945656
725.2785115733
827.7186050435
756.1121035411
689.1145337148
755.8925556347
827.7979358359
725.1077816944
827.5629509319
1094.6226978507
885.2364013208
1095.0203154403
931.593273081
779.9064216709
932.0269023082
1095.0243680773
885.6377472298
1095.4096206431
