# vtk DataFile Version 2.0
Results
ASCII
DATASET UNSTRUCTURED_GRID
POINTS         27           float
0.0	0.0	0.0	
0.5	0.0	0.0	
1.0	0.0	0.0	
0.0	0.4	0.0	
0.5	0.4	0.0	
1.0	0.4	0.0	
0.0	0.8	0.0	
0.5	0.8	0.0	
1.0	0.8	0.0	
0.0	0.0	0.7	
0.5	0.0	0.7	
1.0	0.0	0.7	
0.0	0.4	0.7	
0.5	0.4	0.7	
1.0	0.4	0.7	
0.0	0.8	0.7	
0.5	0.8	0.7	
1.0	0.8	0.7	
0.0	0.0	1.4	
0.5	0.0	1.4	
1.0	0.0	1.4	
0.0	0.4	1.4	
0.5	0.4	1.4	
1.0	0.4	1.4	
0.0	0.8	1.4	
0.5	0.8	1.4	
1.0	0.8	1.4	

CELLS	8	72
 8	0	1	4	3	9	10	13	12	
 8	1	2	5	4	10	11	14	13	
 8	4	5	8	7	13	14	17	16	
 8	3	4	7	6	12	13	16	15	
 8	9	10	13	12	18	19	22	21	
 8	10	11	14	13	19	20	23	22	
 8	13	14	17	16	22	23	26	25	
 8	12	13	16	15	21	22	25	24	

CELL_TYPES	8
 12
 12
 12
 12
 12
 12
 12
 12

POINT_DATA	27
VECTORS	u 	float 
0.0	0.0	0.0
0.0	0.0	0.0
0.0	0.0	0.0
0.0	0.0	0.0
0.0	0.0	0.0
0.0	0.0	0.0
0.0	0.0	0.0
0.0	0.0	0.0
0.0	0.0	0.0
1.4e-09	1.3e-09	5.8e-09
0.0	1.2e-09	5.7e-09
-1.4e-09	1.3e-09	5.8e-09
1.4e-09	0.0	5.9e-09
0.0	0.0	5.5e-09
-1.4e-09	0.0	5.9e-09
1.4e-09	-1.3e-09	5.8e-09
0.0	-1.2e-09	5.7e-09
-1.4e-09	-1.3e-09	5.8e-09
2.2e-09	1.7e-09	1.62e-08
0.0	1e-09	1.12e-08
-2.2e-09	1.7e-09	1.62e-08
1.9e-09	0.0	1.24e-08
0.0	0.0	1.06e-08
-1.9e-09	0.0	1.24e-08
2.2e-09	-1.7e-09	1.62e-08
0.0	-1e-09	1.12e-08
-2.2e-09	-1.7e-09	1.62e-08

VECTORS	v 	float 
0.0	0.0	0.0
0.0	0.0	0.0
0.0	0.0	0.0
0.0	0.0	0.0
0.0	0.0	0.0
0.0	0.0	0.0
0.0	0.0	0.0
0.0	0.0	0.0
0.0	0.0	0.0
1.4e-09	1.3e-09	5.8e-09
-0.0	1.2e-09	5.7e-09
-1.4e-09	1.3e-09	5.8e-09
1.4e-09	0.0	5.9e-09
0.0	0.0	5.5e-09
-1.4e-09	-0.0	5.9e-09
1.4e-09	-1.3e-09	5.8e-09
0.0	-1.2e-09	5.7e-09
-1.4e-09	-1.3e-09	5.8e-09
2.2e-09	1.7e-09	1.62e-08
-0.0	1e-09	1.12e-08
-2.2e-09	1.7e-09	1.62e-08
1.9e-09	0.0	1.24e-08
0.0	0.0	1.06e-08
-1.9e-09	-0.0	1.24e-08
2.2e-09	-1.7e-09	1.62e-08
0.0	-1e-09	1.12e-08
-2.2e-09	-1.7e-09	1.62e-08

VECTORS	a 	float 
0.0	0.0	0.0
0.0	0.0	0.0
0.0	0.0	0.0
0.0	0.0	0.0
0.0	0.0	0.0
0.0	0.0	0.0
0.0	0.0	0.0
0.0	0.0	0.0
0.0	0.0	0.0
1.4e-09	1.3e-09	5.8e-09
-0.0	1.2e-09	5.7e-09
-1.4e-09	1.3e-09	5.8e-09
1.4e-09	0.0	5.9e-09
0.0	0.0	5.5e-09
-1.4e-09	-0.0	5.9e-09
1.4e-09	-1.3e-09	5.8e-09
0.0	-1.2e-09	5.7e-09
-1.4e-09	-1.3e-09	5.8e-09
2.2e-09	1.7e-09	1.62e-08
-0.0	1e-09	1.12e-08
-2.2e-09	1.7e-09	1.62e-08
1.9e-09	0.0	1.24e-08
0.0	0.0	1.06e-08
-1.9e-09	-0.0	1.24e-08
2.2e-09	-1.7e-09	1.62e-08
0.0	-1e-09	1.12e-08
-2.2e-09	-1.7e-09	1.62e-08

SCALARS	phi	float 1
LOOKUP_TABLE	default
0.0
0.0
0.0
0.0
0.0
0.0
0.0
0.0
0.0
7.8125
7.8125
7.8125
7.8125
7.8125
7.8125
7.8125
7.8125
7.8125
15.625
15.625
15.625
15.625
15.625
15.625
15.625
15.625
15.625

SCALARS	sig_11	float	1
LOOKUP_TABLE	default
454.9067692096
446.1358264825
454.9067692096
455.0177428646
437.3407437683
455.0177428646
454.9067692096
446.1358264825
454.9067692096
125.4642663626
27.2170853103
125.4642663626
41.5013868624
-12.3720296759
41.5013868624
125.4642663626
27.2170853103
125.4642663626
8.8014410063
-153.4534072359
8.8014410063
-128.7183876146
-193.3196504598
-128.7183876146
8.8014410063
-153.4534072359
8.8014410063

SCALARS	sig_22	float	1
LOOKUP_TABLE	default
443.5285405238
437.7188211882
443.5285405238
444.7287707614
430.0129950568
444.7287707614
443.5285405238
437.7188211882
443.5285405238
95.0297833154
16.0585998096
95.0297833154
11.3151783078
-23.2822406841
11.3151783078
95.0297833154
16.0585998096
95.0297833154
19.6244303828
-77.315230238
19.6244303828
-134.9231131892
-134.209188413
-134.9231131892
19.6244303828
-77.315230238
19.6244303828

SCALARS	sig_33	float	1
LOOKUP_TABLE	default
1253.1725411417
1231.2037917357
1253.1725411417
1256.8628188661
1215.5937384252
1256.8628188661
1253.1725411417
1231.2037917357
1253.1725411417
1264.341165341
1032.1535221721
1264.341165341
1083.1713663183
947.1461893285
1083.1713663183
1264.341165341
1032.1535221721
1264.341165341
1428.9223124723
1011.9843466757
1428.9223124723
1076.9743333834
871.6616309799
1076.9743333834
1428.9223124723
1011.9843466757
1428.9223124723

SCALARS vonMises	float	1
LOOKUP_TABLE	default
579.1358607876
563.2181792158
579.1358607876
576.2709233435
553.9958739106
576.2709233435
579.1358607876
563.2181792158
579.1358607876
826.5059311791
723.7694445791
826.5059311791
754.6243258159
687.6135950961
754.6243258159
826.5059311791
723.7694445791
826.5059311791
1095.0509264256
886.007642175
1095.0509264256
932.2381126579
780.9657798703
932.2381126579
1095.0509264256
886.007642175
1095.0509264256
