# vtk DataFile Version 2.0
Results
ASCII
DATASET UNSTRUCTURED_GRID
POINTS         27           float
0.0	0.0	0.0	
0.5	0.0	0.0	
1.0	0.0	0.0	
0.0	0.4	0.0	
0.5	0.4	0.0	
1.0	0.4	0.0	
0.0	0.8	0.0	
0.5	0.8	0.0	
1.0	0.8	0.0	
0.0	0.0	0.7	
0.5	0.0	0.7	
1.0	0.0	0.7	
0.0	0.4	0.7	
0.5	0.4	0.7	
1.0	0.4	0.7	
0.0	0.8	0.7	
0.5	0.8	0.7	
1.0	0.8	0.7	
0.0	0.0	1.4	
0.5	0.0	1.4	
1.0	0.0	1.4	
0.0	0.4	1.4	
0.5	0.4	1.4	
1.0	0.4	1.4	
0.0	0.8	1.4	
0.5	0.8	1.4	
1.0	0.8	1.4	

CELLS	8	72
 8	0	1	4	3	9	10	13	12	
 8	1	2	5	4	10	11	14	13	
 8	4	5	8	7	13	14	17	16	
 8	3	4	7	6	12	13	16	15	
 8	9	10	13	12	18	19	22	21	
 8	10	11	14	13	19	20	23	22	
 8	13	14	17	16	22	23	26	25	
 8	12	13	16	15	21	22	25	24	

CELL_TYPES	8
 12
 12
 12
 12
 12
 12
 12
 12

POINT_DATA	27
VECTORS	u 	float 
0.0	0.0	0.0
0.0	0.0	0.0
0.0	0.0	0.0
0.0	0.0	0.0
0.0	0.0	0.0
0.0	0.0	0.0
0.0	0.0	0.0
0.0	0.0	0.0
0.0	0.0	0.0
1.4e-09	1.3e-09	5.8e-09
0.0	1.2e-09	5.7e-09
-1.4e-09	1.3e-09	5.8e-09
1.4e-09	-0.0	5.9e-09
0.0	-0.0	5.5e-09
-1.4e-09	-0.0	5.9e-09
1.4e-09	-1.3e-09	5.8e-09
0.0	-1.2e-09	5.7e-09
-1.4e-09	-1.3e-09	5.8e-09
2.2e-09	1.7e-09	1.62e-08
0.0	1e-09	1.12e-08
-2.2e-09	1.7e-09	1.62e-08
1.9e-09	-0.0	1.24e-08
0.0	-0.0	1.06e-08
-1.9e-09	-0.0	1.24e-08
2.2e-09	-1.7e-09	1.62e-08
0.0	-1e-09	1.12e-08
-2.2e-09	-1.7e-09	1.62e-08

VECTORS	v 	float 
0.0	0.0	0.0
0.0	0.0	0.0
0.0	0.0	0.0
0.0	0.0	0.0
0.0	0.0	0.0
0.0	0.0	0.0
0.0	0.0	0.0
0.0	0.0	0.0
0.0	0.0	0.0
7e-10	7e-10	2.9e-09
-0.0	6e-10	2.8e-09
-7e-10	7e-10	2.9e-09
7e-10	0.0	3e-09
0.0	0.0	2.7e-09
-7e-10	-0.0	3e-09
7e-10	-7e-10	2.9e-09
0.0	-6e-10	2.8e-09
-7e-10	-7e-10	2.9e-09
1.1e-09	9e-10	8.1e-09
-0.0	5e-10	5.6e-09
-1.1e-09	9e-10	8.1e-09
9e-10	0.0	6.2e-09
0.0	0.0	5.3e-09
-9e-10	-0.0	6.2e-09
1.1e-09	-9e-10	8.1e-09
0.0	-5e-10	5.6e-09
-1.1e-09	-9e-10	8.1e-09

VECTORS	a 	float 
0.0	0.0	0.0
0.0	0.0	0.0
0.0	0.0	0.0
0.0	0.0	0.0
0.0	0.0	0.0
0.0	0.0	0.0
0.0	0.0	0.0
0.0	0.0	0.0
0.0	0.0	0.0
-7e-10	-7e-10	-2.9e-09
0.0	-6e-10	-2.8e-09
7e-10	-7e-10	-2.9e-09
-7e-10	-0.0	-3e-09
-0.0	-0.0	-2.7e-09
7e-10	0.0	-3e-09
-7e-10	7e-10	-2.9e-09
-0.0	6e-10	-2.8e-09
7e-10	7e-10	-2.9e-09
-1.1e-09	-9e-10	-8.1e-09
0.0	-5e-10	-5.6e-09
1.1e-09	-9e-10	-8.1e-09
-9e-10	-0.0	-6.2e-09
-0.0	-0.0	-5.3e-09
9e-10	0.0	-6.2e-09
-1.1e-09	9e-10	-8.1e-09
-0.0	5e-10	-5.6e-09
1.1e-09	9e-10	-8.1e-09

SCALARS	phi	float 1
LOOKUP_TABLE	default
0.0
0.0
0.0
0.0
0.0
0.0
0.0
0.0
0.0
7.8125000799
7.8125000882
7.8125000799
7.812500088
7.8125000919
7.812500088
7.8125000799
7.8125000882
7.8125000799
15.6250002434
15.6250002062
15.6250002434
15.6250002162
15.6250001992
15.6250002162
15.6250002434
15.6250002062
15.6250002434

SCALARS	sig_11	float	1
LOOKUP_TABLE	default
454.9067631274
446.1358210564
454.9067631274
455.0177369571
437.3407386588
455.0177369571
454.9067631274
446.1358210564
454.9067631274
125.4642556107
27.2170774392
125.4642556107
41.5013781741
-12.3720366095
41.5013781741
125.4642556107
27.2170774392
125.4642556107
8.8014222617
-153.4534196858
8.8014222617
-128.7184008782
-193.3196599396
-128.7184008782
8.8014222617
-153.4534196858
8.8014222617

SCALARS	sig_22	float	1
LOOKUP_TABLE	default
443.5285343894
437.7188154987
443.5285343894
444.7287650846
430.0129899364
444.7287650846
443.5285343894
437.7188154987
443.5285343894
95.0297724036
16.0585917513
95.0297724036
11.315169596
-23.2822476743
11.315169596
95.0297724036
16.0585917513
95.0297724036
19.6244116896
-77.3152422682
19.6244116896
-134.9231264629
-134.2091975163
-134.9231264629
19.6244116896
-77.3152422682
19.6244116896

SCALARS	sig_33	float	1
LOOKUP_TABLE	default
1253.1725292923
1231.2037805171
1253.1725292923
1256.8628071596
1215.5937276511
1256.8628071596
1253.1725292923
1231.2037805171
1253.1725292923
1264.3411456722
1032.1535078999
1264.3411456722
1083.1713507281
947.1461768765
1083.1713507281
1264.3411456722
1032.1535078999
1264.3411456722
1428.9222775799
1011.9843247526
1428.9222775799
1076.9743097792
871.6616149903
1076.9743097792
1428.9222775799
1011.9843247526
1428.9222775799

SCALARS vonMises	float	1
LOOKUP_TABLE	default
579.1358563469
563.2181750141
579.1358563469
576.270918952
553.9958698641
576.270918952
579.1358563469
563.2181750141
579.1358563469
826.5059249954
723.7694402023
826.5059249954
754.6243210178
687.613591299
754.6243210178
826.5059249954
723.7694402023
826.5059249954
1095.0509179233
886.0076373473
1095.0509179233
932.2381071898
780.9657760967
932.2381071898
1095.0509179233
886.0076373473
1095.0509179233
