# vtk DataFile Version 2.0
Results
ASCII
DATASET UNSTRUCTURED_GRID
POINTS         27           float
0.0	0.0	0.0	
0.5	0.0	0.0	
1.0	0.0	0.0	
0.0	0.4	0.0	
0.5	0.4	0.0	
1.0	0.4	0.0	
0.0	0.8	0.0	
0.5	0.8	0.0	
1.0	0.8	0.0	
0.0	0.0	0.7	
0.5	0.0	0.7	
1.0	0.0	0.7	
0.0	0.4	0.7	
0.5	0.4	0.7	
1.0	0.4	0.7	
0.0	0.8	0.7	
0.5	0.8	0.7	
1.0	0.8	0.7	
0.0	0.0	1.4	
0.5	0.0	1.4	
1.0	0.0	1.4	
0.0	0.4	1.4	
0.5	0.4	1.4	
1.0	0.4	1.4	
0.0	0.8	1.4	
0.5	0.8	1.4	
1.0	0.8	1.4	

CELLS	8	72
 8	0	1	4	3	9	10	13	12	
 8	1	2	5	4	10	11	14	13	
 8	4	5	8	7	13	14	17	16	
 8	3	4	7	6	12	13	16	15	
 8	9	10	13	12	18	19	22	21	
 8	10	11	14	13	19	20	23	22	
 8	13	14	17	16	22	23	26	25	
 8	12	13	16	15	21	22	25	24	

CELL_TYPES	8
 12
 12
 12
 12
 12
 12
 12
 12

POINT_DATA	27
VECTORS	u 	float 
0.0	0.0	0.0
0.0	0.0	0.0
0.0	0.0	0.0
0.0	0.0	0.0
0.0	0.0	0.0
0.0	0.0	0.0
0.0	0.0	0.0
0.0	0.0	0.0
0.0	0.0	0.0
1.4e-09	1.3e-09	5.8e-09
0.0	1.2e-09	5.7e-09
-1.4e-09	1.3e-09	5.8e-09
1.4e-09	0.0	5.9e-09
0.0	0.0	5.5e-09
-1.4e-09	0.0	5.9e-09
1.4e-09	-1.3e-09	5.8e-09
0.0	-1.2e-09	5.7e-09
-1.4e-09	-1.3e-09	5.8e-09
2.2e-09	1.7e-09	1.62e-08
0.0	1e-09	1.12e-08
-2.2e-09	1.7e-09	1.62e-08
1.9e-09	-0.0	1.24e-08
0.0	0.0	1.06e-08
-1.9e-09	-0.0	1.24e-08
2.2e-09	-1.7e-09	1.62e-08
0.0	-1e-09	1.12e-08
-2.2e-09	-1.7e-09	1.62e-08

VECTORS	v 	float 
0.0	0.0	0.0
0.0	0.0	0.0
0.0	0.0	0.0
0.0	0.0	0.0
0.0	0.0	0.0
0.0	0.0	0.0
0.0	0.0	0.0
0.0	0.0	0.0
0.0	0.0	0.0
7e-10	7e-10	2.9e-09
0.0	6e-10	2.8e-09
-7e-10	7e-10	2.9e-09
7e-10	0.0	3e-09
0.0	0.0	2.7e-09
-7e-10	0.0	3e-09
7e-10	-7e-10	2.9e-09
0.0	-6e-10	2.8e-09
-7e-10	-7e-10	2.9e-09
1.1e-09	9e-10	8.1e-09
0.0	5e-10	5.6e-09
-1.1e-09	9e-10	8.1e-09
9e-10	0.0	6.2e-09
0.0	0.0	5.3e-09
-9e-10	0.0	6.2e-09
1.1e-09	-9e-10	8.1e-09
0.0	-5e-10	5.6e-09
-1.1e-09	-9e-10	8.1e-09

VECTORS	a 	float 
0.0	0.0	0.0
0.0	0.0	0.0
0.0	0.0	0.0
0.0	0.0	0.0
0.0	0.0	0.0
0.0	0.0	0.0
0.0	0.0	0.0
0.0	0.0	0.0
0.0	0.0	0.0
-7e-10	-7e-10	-2.9e-09
-0.0	-6e-10	-2.8e-09
7e-10	-7e-10	-2.9e-09
-7e-10	-0.0	-3e-09
-0.0	-0.0	-2.7e-09
7e-10	-0.0	-3e-09
-7e-10	7e-10	-2.9e-09
-0.0	6e-10	-2.8e-09
7e-10	7e-10	-2.9e-09
-1.1e-09	-9e-10	-8.1e-09
-0.0	-5e-10	-5.6e-09
1.1e-09	-9e-10	-8.1e-09
-9e-10	-0.0	-6.2e-09
-0.0	-0.0	-5.3e-09
9e-10	-0.0	-6.2e-09
-1.1e-09	9e-10	-8.1e-09
-0.0	5e-10	-5.6e-09
1.1e-09	9e-10	-8.1e-09

SCALARS	phi	float 1
LOOKUP_TABLE	default
0.0
0.0
0.0
0.0
0.0
0.0
0.0
0.0
0.0
8.5027223799
8.4145686965
8.5027223799
7.812500088
7.8125000919
7.812500088
7.1222777799
7.2104314799
7.1222777799
16.1396714941
15.9849616688
16.1396714941
15.6250002164
15.6250001993
15.6250002164
15.1103289925
15.2650387434
15.1103289925

SCALARS	sig_11	float	1
LOOKUP_TABLE	default
454.9067581938
446.1358157648
454.9067581938
455.0177317747
437.340733117
455.0177317747
454.9067581938
446.1358157648
454.9067581938
125.4642405277
27.2170622876
125.4642405277
41.5013630513
-12.372051805
41.5013630513
125.4642405277
27.2170622876
125.4642405277
8.8014009425
-153.453440849
8.8014009425
-128.7184220954
-193.3196810075
-128.7184220954
8.8014009425
-153.453440849
8.8014009425

SCALARS	sig_22	float	1
LOOKUP_TABLE	default
443.5285294123
437.7188101768
443.5285294123
444.7287598555
430.0129843611
444.7287598555
443.5285294123
437.7188101768
443.5285294123
95.029757197
16.0585765101
95.029757197
11.3151543459
-23.2822629631
11.3151543459
95.029757197
16.0585765101
95.029757197
19.6243903685
-77.3152634542
19.6243903685
-134.92314765
-134.2092185749
-134.92314765
19.6243903685
-77.3152634542
19.6243903685

SCALARS	sig_33	float	1
LOOKUP_TABLE	default
1253.1725234837
1231.2037739195
1253.1725234837
1256.8628008016
1215.5937205011
1256.8628008016
1253.1725234837
1231.2037739195
1253.1725234837
1264.3411310311
1032.1534930761
1264.3411310311
1083.1713359891
947.146161946
1083.1713359891
1264.3411310311
1032.1534930761
1264.3411310311
1428.9222566413
1011.9843041729
1428.9222566413
1076.974289163
871.6615947184
1076.974289163
1428.9222566413
1011.9843041729
1428.9222566413

SCALARS vonMises	float	1
LOOKUP_TABLE	default
579.1358560931
563.2181742715
579.1358560931
576.2709183407
553.9958687759
576.2709183407
579.1358560931
563.2181742715
579.1358560931
826.5059254515
723.7694405419
826.5059254515
754.624321398
687.6135915687
754.624321398
826.5059254515
723.7694405419
826.5059254515
1095.0509180945
886.0076378021
1095.0509180945
932.2381075954
780.9657767315
932.2381075954
1095.0509180945
886.0076378021
1095.0509180945
