# vtk DataFile Version 2.0
Results
ASCII
DATASET UNSTRUCTURED_GRID
POINTS         27           float
0.0	0.0	0.0	
0.5	0.0	0.0	
1.0	0.0	0.0	
0.0	0.4	0.0	
0.5	0.4	0.0	
1.0	0.4	0.0	
0.0	0.8	0.0	
0.5	0.8	0.0	
1.0	0.8	0.0	
0.0	0.0	0.7	
0.5	0.0	0.7	
1.0	0.0	0.7	
0.0	0.4	0.7	
0.5	0.4	0.7	
1.0	0.4	0.7	
0.0	0.8	0.7	
0.5	0.8	0.7	
1.0	0.8	0.7	
0.0	0.0	1.4	
0.5	0.0	1.4	
1.0	0.0	1.4	
0.0	0.4	1.4	
0.5	0.4	1.4	
1.0	0.4	1.4	
0.0	0.8	1.4	
0.5	0.8	1.4	
1.0	0.8	1.4	

CELLS	8	72
 8	0	1	4	3	9	10	13	12	
 8	1	2	5	4	10	11	14	13	
 8	4	5	8	7	13	14	17	16	
 8	3	4	7	6	12	13	16	15	
 8	9	10	13	12	18	19	22	21	
 8	10	11	14	13	19	20	23	22	
 8	13	14	17	16	22	23	26	25	
 8	12	13	16	15	21	22	25	24	

CELL_TYPES	8
 12
 12
 12
 12
 12
 12
 12
 12

POINT_DATA	27
VECTORS	u 	float 
0.0	0.0	0.0
0.0	0.0	0.0
0.0	0.0	0.0
0.0	0.0	0.0
0.0	0.0	0.0
0.0	0.0	0.0
0.0	0.0	0.0
0.0	0.0	0.0
0.0	0.0	0.0
1.4e-09	1.3e-09	5.8e-09
0.0	1.2e-09	5.7e-09
-1.4e-09	1.3e-09	5.8e-09
1.4e-09	0.0	5.9e-09
0.0	0.0	5.5e-09
-1.4e-09	0.0	5.9e-09
1.4e-09	-1.3e-09	5.8e-09
0.0	-1.2e-09	5.7e-09
-1.4e-09	-1.3e-09	5.8e-09
2.2e-09	1.7e-09	1.62e-08
0.0	1e-09	1.12e-08
-2.2e-09	1.7e-09	1.62e-08
1.9e-09	0.0	1.24e-08
0.0	0.0	1.06e-08
-1.9e-09	0.0	1.24e-08
2.2e-09	-1.7e-09	1.62e-08
0.0	-1e-09	1.12e-08
-2.2e-09	-1.7e-09	1.62e-08

VECTORS	v 	float 
0.0	0.0	0.0
0.0	0.0	0.0
0.0	0.0	0.0
0.0	0.0	0.0
0.0	0.0	0.0
0.0	0.0	0.0
0.0	0.0	0.0
0.0	0.0	0.0
0.0	0.0	0.0
1.4e-09	1.3e-09	5.8e-09
0.0	1.2e-09	5.7e-09
-1.4e-09	1.3e-09	5.8e-09
1.4e-09	0.0	5.9e-09
0.0	0.0	5.5e-09
-1.4e-09	0.0	5.9e-09
1.4e-09	-1.3e-09	5.8e-09
0.0	-1.2e-09	5.7e-09
-1.4e-09	-1.3e-09	5.8e-09
2.2e-09	1.7e-09	1.62e-08
0.0	1e-09	1.12e-08
-2.2e-09	1.7e-09	1.62e-08
1.9e-09	0.0	1.24e-08
0.0	0.0	1.06e-08
-1.9e-09	0.0	1.24e-08
2.2e-09	-1.7e-09	1.62e-08
0.0	-1e-09	1.12e-08
-2.2e-09	-1.7e-09	1.62e-08

VECTORS	a 	float 
0.0	0.0	0.0
0.0	0.0	0.0
0.0	0.0	0.0
0.0	0.0	0.0
0.0	0.0	0.0
0.0	0.0	0.0
0.0	0.0	0.0
0.0	0.0	0.0
0.0	0.0	0.0
1.4e-09	1.3e-09	5.8e-09
0.0	1.2e-09	5.7e-09
-1.4e-09	1.3e-09	5.8e-09
1.4e-09	0.0	5.9e-09
0.0	0.0	5.5e-09
-1.4e-09	0.0	5.9e-09
1.4e-09	-1.3e-09	5.8e-09
0.0	-1.2e-09	5.7e-09
-1.4e-09	-1.3e-09	5.8e-09
2.2e-09	1.7e-09	1.62e-08
0.0	1e-09	1.12e-08
-2.2e-09	1.7e-09	1.62e-08
1.9e-09	0.0	1.24e-08
0.0	0.0	1.06e-08
-1.9e-09	0.0	1.24e-08
2.2e-09	-1.7e-09	1.62e-08
0.0	-1e-09	1.12e-08
-2.2e-09	-1.7e-09	1.62e-08

SCALARS	phi	float 1
LOOKUP_TABLE	default
0.0
0.0
0.0
0.0
0.0
0.0
0.0
0.0
0.0
8.5027222755
8.4145685819
8.5027222755
7.8125
7.8125
7.8125
7.1222777245
7.2104314181
7.1222777245
16.1396712198
15.9849614299
16.1396712198
15.625
15.625
15.625
15.1103287802
15.2650385701
15.1103287802

SCALARS	sig_11	float	1
LOOKUP_TABLE	default
454.9064175785
446.1354516279
454.9064175785
455.0173747583
437.3403523516
455.0173747583
454.9064175785
446.1354516279
454.9064175785
125.4632155853
27.2160328262
125.4632155853
41.5003339628
-12.373084556
41.5003339628
125.4632155853
27.2160328262
125.4632155853
8.8000274458
-153.4548054711
8.8000274458
-128.719793348
-193.3210413282
-128.719793348
8.8000274458
-153.4548054711
8.8000274458

SCALARS	sig_22	float	1
LOOKUP_TABLE	default
443.5281853471
437.7184438732
443.5281853471
444.7283990329
430.012601103
444.7283990329
443.5281853471
437.7184438732
443.5281853471
95.0287224833
16.0575403026
95.0287224833
11.3141156392
-23.2833023011
11.3141156392
95.0287224833
16.0575403026
95.0287224833
19.6230167675
-77.3166287832
19.6230167675
-134.9245159574
-134.2105765713
-134.9245159574
19.6230167675
-77.3166287832
19.6230167675

SCALARS	sig_33	float	1
LOOKUP_TABLE	default
1253.1721260643
1231.2033252454
1253.1721260643
1256.8623678424
1215.5932358003
1256.8623678424
1253.1721260643
1231.2033252454
1253.1721260643
1264.3401481441
1032.1524982444
1264.3401481441
1083.1703454275
947.145161114
1083.1703454275
1264.3401481441
1032.1524982444
1264.3401481441
1428.9209107792
1011.9829784492
1428.9209107792
1076.9729582171
871.6602882827
1076.9729582171
1428.9209107792
1011.9829784492
1428.9209107792

SCALARS vonMises	float	1
LOOKUP_TABLE	default
579.135842321
563.2181275547
579.135842321
576.2708806329
553.9957988739
576.2708806329
579.135842321
563.2181275547
579.135842321
826.5059665244
723.7694729603
826.5059665244
754.6243568341
687.6136196664
754.6243568341
826.5059665244
723.7694729603
826.5059665244
1095.0509311783
886.0076659347
1095.0509311783
932.2381330494
780.9658168726
932.2381330494
1095.0509311783
886.0076659347
1095.0509311783
