# vtk DataFile Version 2.0
Results
ASCII
DATASET UNSTRUCTURED_GRID
POINTS         27           float
0.0	0.0	0.0	
0.5	0.0	0.0	
1.0	0.0	0.0	
0.0	0.4	0.0	
0.5	0.4	0.0	
1.0	0.4	0.0	
0.0	0.8	0.0	
0.5	0.8	0.0	
1.0	0.8	0.0	
0.0	0.0	0.7	
0.5	0.0	0.7	
1.0	0.0	0.7	
0.0	0.4	0.7	
0.5	0.4	0.7	
1.0	0.4	0.7	
0.0	0.8	0.7	
0.5	0.8	0.7	
1.0	0.8	0.7	
0.0	0.0	1.4	
0.5	0.0	1.4	
1.0	0.0	1.4	
0.0	0.4	1.4	
0.5	0.4	1.4	
1.0	0.4	1.4	
0.0	0.8	1.4	
0.5	0.8	1.4	
1.0	0.8	1.4	

CELLS	8	72
 8	0	1	4	3	9	10	13	12	
 8	1	2	5	4	10	11	14	13	
 8	4	5	8	7	13	14	17	16	
 8	3	4	7	6	12	13	16	15	
 8	9	10	13	12	18	19	22	21	
 8	10	11	14	13	19	20	23	22	
 8	13	14	17	16	22	23	26	25	
 8	12	13	16	15	21	22	25	24	

CELL_TYPES	8
 12
 12
 12
 12
 12
 12
 12
 12

POINT_DATA	27
VECTORS	u 	float 
0.0	0.0	0.0
0.0	0.0	0.0
0.0	0.0	0.0
0.0	0.0	0.0
0.0	0.0	0.0
0.0	0.0	0.0
0.0	0.0	0.0
0.0	0.0	0.0
0.0	0.0	0.0
1.4e-09	1.3e-09	5.8e-09
-0.0	1.2e-09	5.7e-09
-1.4e-09	1.3e-09	5.8e-09
1.4e-09	0.0	5.9e-09
-0.0	0.0	5.5e-09
-1.4e-09	0.0	5.9e-09
1.4e-09	-1.3e-09	5.8e-09
0.0	-1.2e-09	5.7e-09
-1.4e-09	-1.3e-09	5.8e-09
2.2e-09	1.7e-09	1.62e-08
-0.0	1e-09	1.12e-08
-2.2e-09	1.7e-09	1.62e-08
1.9e-09	-0.0	1.24e-08
-0.0	-0.0	1.06e-08
-1.9e-09	-0.0	1.24e-08
2.2e-09	-1.7e-09	1.62e-08
-0.0	-1e-09	1.12e-08
-2.2e-09	-1.7e-09	1.62e-08

VECTORS	v 	float 
0.0	0.0	0.0
0.0	0.0	0.0
0.0	0.0	0.0
0.0	0.0	0.0
0.0	0.0	0.0
0.0	0.0	0.0
0.0	0.0	0.0
0.0	0.0	0.0
0.0	0.0	0.0
-3e-10	-3e-10	-1.4e-09
-0.0	-3e-10	-1.4e-09
3e-10	-3e-10	-1.4e-09
-4e-10	-0.0	-1.5e-09
-0.0	-0.0	-1.4e-09
4e-10	-0.0	-1.5e-09
-3e-10	3e-10	-1.4e-09
-0.0	3e-10	-1.4e-09
3e-10	3e-10	-1.4e-09
-5e-10	-4e-10	-4.1e-09
-0.0	-2e-10	-2.8e-09
5e-10	-4e-10	-4.1e-09
-5e-10	-0.0	-3.1e-09
-0.0	-0.0	-2.7e-09
5e-10	-0.0	-3.1e-09
-5e-10	4e-10	-4.1e-09
-0.0	2e-10	-2.8e-09
5e-10	4e-10	-4.1e-09

VECTORS	a 	float 
0.0	0.0	0.0
0.0	0.0	0.0
0.0	0.0	0.0
0.0	0.0	0.0
0.0	0.0	0.0
0.0	0.0	0.0
0.0	0.0	0.0
0.0	0.0	0.0
0.0	0.0	0.0
-1e-09	-1e-09	-4.3e-09
-0.0	-9e-10	-4.2e-09
1e-09	-1e-09	-4.3e-09
-1.1e-09	-0.0	-4.4e-09
-0.0	-0.0	-4.1e-09
1.1e-09	-0.0	-4.4e-09
-1e-09	1e-09	-4.3e-09
-0.0	9e-10	-4.2e-09
1e-09	1e-09	-4.3e-09
-1.6e-09	-1.3e-09	-1.22e-08
-0.0	-7e-10	-8.4e-09
1.6e-09	-1.3e-09	-1.22e-08
-1.4e-09	-0.0	-9.3e-09
-0.0	-0.0	-8e-09
1.4e-09	-0.0	-9.3e-09
-1.6e-09	1.3e-09	-1.22e-08
-0.0	7e-10	-8.4e-09
1.6e-09	1.3e-09	-1.22e-08

SCALARS	phi	float 1
LOOKUP_TABLE	default
0.0
0.0
0.0
0.0
0.0
0.0
0.0
0.0
0.0
8.5027223802
8.4145686969
8.5027223802
7.812500088
7.8125000919
7.812500088
7.1222777795
7.2104314795
7.1222777795
16.1396714947
15.9849616694
16.1396714947
15.6250002162
15.6250001992
15.6250002162
15.1103289921
15.265038743
15.1103289921

SCALARS	sig_11	float	1
LOOKUP_TABLE	default
454.9067690051
446.1358278421
454.9067690051
455.0177436099
437.3407458141
455.0177436099
454.9067689615
446.13582781
454.9067689615
125.4642651652
27.2170853954
125.4642651652
41.5013865402
-12.3720294867
41.5013865402
125.4642651327
27.2170853647
125.4642651327
8.8014389398
-153.45340746
8.8014389398
-128.7183878697
-193.3196502959
-128.7183878697
8.8014391944
-153.45340727
8.8014391944

SCALARS	sig_22	float	1
LOOKUP_TABLE	default
443.5285401744
437.7188220692
443.5285401744
444.7287716899
430.0129969241
444.7287716899
443.5285401211
437.7188220321
443.5285401211
95.0297817863
16.0585989443
95.0297817863
11.3151780709
-23.2822410327
11.3151780709
95.0297817383
16.0585989006
95.0297817383
19.6244289114
-77.3152309645
19.6244289114
-134.9231119945
-134.2091879116
-134.9231119945
19.6244292385
-77.315230768
19.6244292385

SCALARS	sig_33	float	1
LOOKUP_TABLE	default
1253.1725430146
1231.2037963295
1253.1725430146
1256.8628227391
1215.5937444397
1256.8628227391
1253.1725429583
1231.2037962933
1253.1725429583
1264.3411690563
1032.1535284115
1264.3411690563
1083.1713724771
947.1461965213
1083.1713724771
1264.3411690396
1032.1535283961
1264.3411690396
1428.9223130533
1011.9843520433
1428.9223130533
1076.9743399246
871.6616393425
1076.9743399246
1428.9223132801
1011.984352196
1428.9223132801

SCALARS vonMises	float	1
LOOKUP_TABLE	default
579.135862046
563.2181815325
579.135862046
576.2709253342
553.9958767546
576.2709253342
579.1358620424
563.2181815316
579.1358620424
826.5059349449
723.7694493005
826.5059349449
754.6243304279
687.6136002506
754.6243304279
826.5059349651
723.7694493174
826.5059349651
1095.0509314327
886.0076484831
1095.0509314327
932.2381189447
780.9657865911
932.2381189447
1095.0509314062
886.0076484666
1095.0509314062
