# vtk DataFile Version 2.0
Results
ASCII
DATASET UNSTRUCTURED_GRID
POINTS         27           float
0.0	0.0	0.0	
0.5	0.0	0.0	
1.0	0.0	0.0	
0.0	0.4	0.0	
0.5	0.4	0.0	
1.0	0.4	0.0	
0.0	0.8	0.0	
0.5	0.8	0.0	
1.0	0.8	0.0	
0.0	0.0	0.7	
0.5	0.0	0.7	
1.0	0.0	0.7	
0.0	0.4	0.7	
0.5	0.4	0.7	
1.0	0.4	0.7	
0.0	0.8	0.7	
0.5	0.8	0.7	
1.0	0.8	0.7	
0.0	0.0	1.4	
0.5	0.0	1.4	
1.0	0.0	1.4	
0.0	0.4	1.4	
0.5	0.4	1.4	
1.0	0.4	1.4	
0.0	0.8	1.4	
0.5	0.8	1.4	
1.0	0.8	1.4	

CELLS	8	72
 8	0	1	4	3	9	10	13	12	
 8	1	2	5	4	10	11	14	13	
 8	4	5	8	7	13	14	17	16	
 8	3	4	7	6	12	13	16	15	
 8	9	10	13	12	18	19	22	21	
 8	10	11	14	13	19	20	23	22	
 8	13	14	17	16	22	23	26	25	
 8	12	13	16	15	21	22	25	24	

CELL_TYPES	8
 12
 12
 12
 12
 12
 12
 12
 12

POINT_DATA	27
VECTORS	u 	float 
0.0	0.0	0.0
0.0	0.0	0.0
0.0	0.0	0.0
0.0	0.0	0.0
0.0	0.0	0.0
0.0	0.0	0.0
0.0	0.0	0.0
0.0	0.0	0.0
0.0	0.0	0.0
1.4e-09	1.3e-09	5.8e-09
-0.0	1.2e-09	5.7e-09
-1.4e-09	1.3e-09	5.8e-09
1.4e-09	0.0	5.9e-09
-0.0	0.0	5.5e-09
-1.4e-09	0.0	5.9e-09
1.4e-09	-1.3e-09	5.8e-09
-0.0	-1.2e-09	5.7e-09
-1.4e-09	-1.3e-09	5.8e-09
2.2e-09	1.7e-09	1.62e-08
-0.0	1e-09	1.12e-08
-2.2e-09	1.7e-09	1.62e-08
1.9e-09	-0.0	1.24e-08
-0.0	-0.0	1.06e-08
-1.9e-09	-0.0	1.24e-08
2.2e-09	-1.7e-09	1.62e-08
-0.0	-1e-09	1.12e-08
-2.2e-09	-1.7e-09	1.62e-08

VECTORS	v 	float 
0.0	0.0	0.0
0.0	0.0	0.0
0.0	0.0	0.0
0.0	0.0	0.0
0.0	0.0	0.0
0.0	0.0	0.0
0.0	0.0	0.0
0.0	0.0	0.0
0.0	0.0	0.0
-5e-10	-5e-10	-2.2e-09
-0.0	-5e-10	-2.1e-09
5e-10	-5e-10	-2.2e-09
-5e-10	-0.0	-2.2e-09
-0.0	-0.0	-2e-09
5e-10	-0.0	-2.2e-09
-5e-10	5e-10	-2.2e-09
-0.0	5e-10	-2.1e-09
5e-10	5e-10	-2.2e-09
-8e-10	-6e-10	-6.1e-09
-0.0	-4e-10	-4.2e-09
8e-10	-6e-10	-6.1e-09
-7e-10	-0.0	-4.6e-09
-0.0	-0.0	-4e-09
7e-10	-0.0	-4.6e-09
-8e-10	6e-10	-6.1e-09
-0.0	4e-10	-4.2e-09
8e-10	6e-10	-6.1e-09

VECTORS	a 	float 
0.0	0.0	0.0
0.0	0.0	0.0
0.0	0.0	0.0
0.0	0.0	0.0
0.0	0.0	0.0
0.0	0.0	0.0
0.0	0.0	0.0
0.0	0.0	0.0
0.0	0.0	0.0
-2e-10	-2e-10	-7e-10
-0.0	-2e-10	-7e-10
2e-10	-2e-10	-7e-10
-2e-10	-0.0	-7e-10
-0.0	-0.0	-7e-10
2e-10	-0.0	-7e-10
-2e-10	2e-10	-7e-10
-0.0	2e-10	-7e-10
2e-10	2e-10	-7e-10
-3e-10	-2e-10	-2e-09
-0.0	-1e-10	-1.4e-09
3e-10	-2e-10	-2e-09
-2e-10	-0.0	-1.5e-09
-0.0	-0.0	-1.3e-09
2e-10	-0.0	-1.5e-09
-3e-10	2e-10	-2e-09
-0.0	1e-10	-1.4e-09
3e-10	2e-10	-2e-09

SCALARS	phi	float 1
LOOKUP_TABLE	default
0.0
0.0
0.0
0.0
0.0
0.0
0.0
0.0
0.0
8.5027223802
8.4145686969
8.5027223802
7.812500088
7.8125000919
7.812500088
7.1222777795
7.2104314795
7.1222777795
16.1396714947
15.9849616694
16.1396714947
15.6250002162
15.6250001992
15.6250002162
15.1103289921
15.265038743
15.1103289921

SCALARS	sig_11	float	1
LOOKUP_TABLE	default
454.9067690639
446.1358279124
454.9067690639
455.0177436936
437.3407459037
455.0177436936
454.9067690636
446.1358279121
454.9067690636
125.4642653898
27.2170856249
125.4642653898
41.5013867798
-12.372029243
41.5013867798
125.4642653897
27.2170856248
125.4642653897
8.8014393953
-153.4534070345
8.8014393953
-128.718387544
-193.3196499681
-128.718387544
8.8014393979
-153.4534070322
8.8014393979

SCALARS	sig_22	float	1
LOOKUP_TABLE	default
443.5285402287
437.7188221381
443.5285402287
444.7287717743
430.012997015
444.7287717743
443.5285402283
437.7188221378
443.5285402283
95.0297820036
16.0585991704
95.0297820036
11.3151783119
-23.2822407851
11.3151783119
95.0297820034
16.0585991702
95.0297820034
19.6244293997
-77.3152305349
19.6244293997
-134.9231116714
-134.2091875822
-134.9231116714
19.624429403
-77.3152305323
19.624429403

SCALARS	sig_33	float	1
LOOKUP_TABLE	default
1253.1725430818
1231.2037964187
1253.1725430818
1256.8628228423
1215.5937445551
1256.8628228423
1253.1725430814
1231.2037964184
1253.1725430814
1264.3411692805
1032.1535286426
1264.3411692805
1083.17137271
947.1461967606
1083.17137271
1264.3411692805
1032.1535286426
1264.3411692805
1428.9223134892
1011.9843524426
1428.9223134892
1076.9743402418
871.6616396599
1076.9743402418
1428.9223134915
1011.9843524446
1428.9223134915

SCALARS vonMises	float	1
LOOKUP_TABLE	default
579.1358620488
563.2181815436
579.1358620488
576.2709253444
553.9958767717
576.2709253444
579.1358620487
563.2181815436
579.1358620487
826.5059349472
723.7694493022
826.5059349472
754.6243304216
687.6136002453
754.6243304216
826.5059349474
723.7694493024
826.5059349474
1095.0509314172
886.007648468
1095.0509314172
932.2381189392
780.9657865817
932.2381189392
1095.0509314169
886.0076484678
1095.0509314169
