# vtk DataFile Version 2.0
Results
ASCII
DATASET UNSTRUCTURED_GRID
POINTS         27           float
0.0	0.0	0.0	
0.5	0.0	0.0	
1.0	0.0	0.0	
0.0	0.4	0.0	
0.5	0.4	0.0	
1.0	0.4	0.0	
0.0	0.8	0.0	
0.5	0.8	0.0	
1.0	0.8	0.0	
0.0	0.0	0.7	
0.5	0.0	0.7	
1.0	0.0	0.7	
0.0	0.4	0.7	
0.5	0.4	0.7	
1.0	0.4	0.7	
0.0	0.8	0.7	
0.5	0.8	0.7	
1.0	0.8	0.7	
0.0	0.0	1.4	
0.5	0.0	1.4	
1.0	0.0	1.4	
0.0	0.4	1.4	
0.5	0.4	1.4	
1.0	0.4	1.4	
0.0	0.8	1.4	
0.5	0.8	1.4	
1.0	0.8	1.4	

CELLS	8	72
 8	0	1	4	3	9	10	13	12	
 8	1	2	5	4	10	11	14	13	
 8	4	5	8	7	13	14	17	16	
 8	3	4	7	6	12	13	16	15	
 8	9	10	13	12	18	19	22	21	
 8	10	11	14	13	19	20	23	22	
 8	13	14	17	16	22	23	26	25	
 8	12	13	16	15	21	22	25	24	

CELL_TYPES	8
 12
 12
 12
 12
 12
 12
 12
 12

POINT_DATA	27
VECTORS	u 	float 
0.0	0.0	0.0
0.0	0.0	0.0
0.0	0.0	0.0
0.0	0.0	0.0
0.0	0.0	0.0
0.0	0.0	0.0
0.0	0.0	0.0
0.0	0.0	0.0
0.0	0.0	0.0
1.4e-09	1.3e-09	5.8e-09
0.0	1.2e-09	5.6e-09
-1.4e-09	1.3e-09	5.8e-09
1.4e-09	-0.0	5.9e-09
0.0	0.0	5.4e-09
-1.4e-09	0.0	5.9e-09
1.4e-09	-1.3e-09	5.8e-09
-0.0	-1.2e-09	5.6e-09
-1.4e-09	-1.3e-09	5.8e-09
2.2e-09	1.7e-09	1.62e-08
0.0	1e-09	1.12e-08
-2.2e-09	1.7e-09	1.62e-08
1.9e-09	-0.0	1.23e-08
0.0	-0.0	1.06e-08
-1.9e-09	-0.0	1.23e-08
2.2e-09	-1.7e-09	1.62e-08
0.0	-1e-09	1.12e-08
-2.2e-09	-1.7e-09	1.62e-08

VECTORS	v 	float 
0.0	0.0	0.0
0.0	0.0	0.0
0.0	0.0	0.0
0.0	0.0	0.0
0.0	0.0	0.0
0.0	0.0	0.0
0.0	0.0	0.0
0.0	0.0	0.0
0.0	0.0	0.0
0.0	0.0	0.0
0.0	0.0	0.0
0.0	0.0	0.0
0.0	0.0	0.0
0.0	0.0	0.0
0.0	0.0	0.0
0.0	0.0	0.0
0.0	0.0	0.0
0.0	0.0	0.0
0.0	0.0	-0.0
0.0	-0.0	0.0
-0.0	0.0	-0.0
-0.0	0.0	0.0
0.0	0.0	0.0
-0.0	0.0	0.0
-0.0	0.0	0.0
0.0	-0.0	0.0
0.0	0.0	-0.0

VECTORS	a 	float 
0.0	0.0	0.0
0.0	0.0	0.0
0.0	0.0	0.0
0.0	0.0	0.0
0.0	0.0	0.0
0.0	0.0	0.0
0.0	0.0	0.0
0.0	0.0	0.0
0.0	0.0	0.0
0.0	0.0	0.0
0.0	0.0	0.0
0.0	0.0	0.0
0.0	0.0	0.0
0.0	0.0	0.0
0.0	0.0	0.0
0.0	0.0	0.0
0.0	0.0	0.0
0.0	0.0	0.0
0.0	0.0	-0.0
0.0	0.0	0.0
0.0	0.0	-0.0
0.0	0.0	0.0
0.0	0.0	0.0
-0.0	0.0	0.0
0.0	0.0	0.0
0.0	0.0	0.0
0.0	0.0	0.0

SCALARS	phi	float 1
LOOKUP_TABLE	default
0.0
0.0
0.0
0.0
0.0
0.0
0.0
0.0
0.0
-1.3332895678
-1.4297859326
-1.3332895678
-1.405173432
-1.4460377159
-1.405173432
-1.3332895678
-1.4297859326
-1.3332895678
-2.3870611164
-2.2149881284
-2.3870611164
-2.264380692
-2.1826379301
-2.264380692
-2.3870611164
-2.2149881284
-2.3870611164

SCALARS	sig_11	float	1
LOOKUP_TABLE	default
458.9249238935
450.2759947744
458.9249238935
459.1201965286
441.494631079
459.1201965286
458.9249238935
450.2759947744
458.9249238935
125.38437965
27.0289202614
125.38437965
41.3411875396
-12.5772586664
41.3411875396
125.38437965
27.0289202614
125.38437965
9.1261424498
-153.4362262443
9.1261424498
-128.6316465847
-193.3433526991
-128.6316465847
9.1261424498
-153.4362262443
9.1261424498

SCALARS	sig_22	float	1
LOOKUP_TABLE	default
447.511165878
441.829567822
447.511165878
448.7961289598
434.1378945426
448.7961289598
447.511165878
441.829567822
447.511165878
94.8504906836
15.8045195916
94.8504906836
11.0563701216
-23.5525877934
11.0563701216
94.8504906836
15.8045195916
94.8504906836
19.9566950454
-77.1933750627
19.9566950454
-134.8313982969
-134.1308058065
-134.8313982969
19.9566950454
-77.1933750627
19.9566950454

SCALARS	sig_33	float	1
LOOKUP_TABLE	default
1254.2266935913
1232.2133145247
1254.2266935913
1257.888371347
1216.5237374654
1257.888371347
1254.2266935913
1232.2133145247
1254.2266935913
1263.58995814
1031.4083411596
1263.58995814
1082.4322182315
946.4673003314
1082.4322182315
1263.58995814
1031.4083411596
1263.58995814
1429.2630593843
1012.4128270746
1429.2630593843
1077.3710144735
872.3054346022
1077.3710144735
1429.2630593843
1012.4128270746
1429.2630593843

SCALARS vonMises	float	1
LOOKUP_TABLE	default
577.2654845168
561.1212910993
577.2654845168
574.2306458387
551.750354951
574.2306458387
577.2654845168
561.1212910993
577.2654845168
826.1615566287
723.4527407269
826.1615566287
754.2998275719
687.3185556313
754.2998275719
826.1615566287
723.4527407269
826.1615566287
1095.0929661851
886.2095249543
1095.0929661851
932.406336003
781.3245097231
932.406336003
1095.0929661851
886.2095249543
1095.0929661851
