# vtk DataFile Version 2.0
Results
ASCII
DATASET UNSTRUCTURED_GRID
POINTS         27           float
0.0	0.0	0.0	
0.5	0.0	0.0	
1.0	0.0	0.0	
0.0	0.4	0.0	
0.5	0.4	0.0	
1.0	0.4	0.0	
0.0	0.8	0.0	
0.5	0.8	0.0	
1.0	0.8	0.0	
0.0	0.0	0.7	
0.5	0.0	0.7	
1.0	0.0	0.7	
0.0	0.4	0.7	
0.5	0.4	0.7	
1.0	0.4	0.7	
0.0	0.8	0.7	
0.5	0.8	0.7	
1.0	0.8	0.7	
0.0	0.0	1.4	
0.5	0.0	1.4	
1.0	0.0	1.4	
0.0	0.4	1.4	
0.5	0.4	1.4	
1.0	0.4	1.4	
0.0	0.8	1.4	
0.5	0.8	1.4	
1.0	0.8	1.4	

CELLS	8	72
 8	0	1	4	3	9	10	13	12	
 8	1	2	5	4	10	11	14	13	
 8	4	5	8	7	13	14	17	16	
 8	3	4	7	6	12	13	16	15	
 8	9	10	13	12	18	19	22	21	
 8	10	11	14	13	19	20	23	22	
 8	13	14	17	16	22	23	26	25	
 8	12	13	16	15	21	22	25	24	

CELL_TYPES	8
 12
 12
 12
 12
 12
 12
 12
 12

POINT_DATA	27
VECTORS	u 	float 
0.0	0.0	0.0
0.0	0.0	0.0
0.0	0.0	0.0
0.0	0.0	0.0
0.0	0.0	0.0
0.0	0.0	0.0
0.0	0.0	0.0
0.0	0.0	0.0
0.0	0.0	0.0
1.4e-09	1.3e-09	5.8e-09
0.0	1.2e-09	5.6e-09
-1.4e-09	1.3e-09	5.8e-09
1.4e-09	0.0	5.9e-09
0.0	0.0	5.4e-09
-1.4e-09	0.0	5.9e-09
1.4e-09	-1.3e-09	5.8e-09
0.0	-1.2e-09	5.6e-09
-1.4e-09	-1.3e-09	5.8e-09
2.2e-09	1.7e-09	1.62e-08
0.0	1e-09	1.12e-08
-2.2e-09	1.7e-09	1.62e-08
1.9e-09	0.0	1.23e-08
0.0	0.0	1.06e-08
-1.9e-09	0.0	1.23e-08
2.2e-09	-1.7e-09	1.62e-08
0.0	-1e-09	1.12e-08
-2.2e-09	-1.7e-09	1.62e-08

VECTORS	v 	float 
0.0	0.0	0.0
0.0	0.0	0.0
0.0	0.0	0.0
0.0	0.0	0.0
0.0	0.0	0.0
0.0	0.0	0.0
0.0	0.0	0.0
0.0	0.0	0.0
0.0	0.0	0.0
1.4e-09	1.3e-09	5.8e-09
0.0	1.2e-09	5.6e-09
-1.4e-09	1.3e-09	5.8e-09
1.4e-09	-0.0	5.9e-09
0.0	-0.0	5.4e-09
-1.4e-09	-0.0	5.9e-09
1.4e-09	-1.3e-09	5.8e-09
0.0	-1.2e-09	5.6e-09
-1.4e-09	-1.3e-09	5.8e-09
2.2e-09	1.7e-09	1.62e-08
0.0	1e-09	1.12e-08
-2.2e-09	1.7e-09	1.62e-08
1.9e-09	0.0	1.23e-08
0.0	-0.0	1.06e-08
-1.9e-09	0.0	1.23e-08
2.2e-09	-1.7e-09	1.62e-08
0.0	-1e-09	1.12e-08
-2.2e-09	-1.7e-09	1.62e-08

VECTORS	a 	float 
0.0	0.0	0.0
0.0	0.0	0.0
0.0	0.0	0.0
0.0	0.0	0.0
0.0	0.0	0.0
0.0	0.0	0.0
0.0	0.0	0.0
0.0	0.0	0.0
0.0	0.0	0.0
1.4e-09	1.3e-09	5.8e-09
0.0	1.2e-09	5.6e-09
-1.4e-09	1.3e-09	5.8e-09
1.4e-09	-0.0	5.9e-09
0.0	-0.0	5.4e-09
-1.4e-09	-0.0	5.9e-09
1.4e-09	-1.3e-09	5.8e-09
0.0	-1.2e-09	5.6e-09
-1.4e-09	-1.3e-09	5.8e-09
2.2e-09	1.7e-09	1.62e-08
0.0	1e-09	1.12e-08
-2.2e-09	1.7e-09	1.62e-08
1.9e-09	0.0	1.23e-08
0.0	-0.0	1.06e-08
-1.9e-09	0.0	1.23e-08
2.2e-09	-1.7e-09	1.62e-08
0.0	-1e-09	1.12e-08
-2.2e-09	-1.7e-09	1.62e-08

SCALARS	phi	float 1
LOOKUP_TABLE	default
0.0
0.0
0.0
0.0
0.0
0.0
0.0
0.0
0.0
-1.3332895538
-1.4297859182
-1.3332895538
-1.4051734181
-1.4460377006
-1.4051734181
-1.3332895538
-1.4297859182
-1.3332895538
-2.3870610883
-2.2149880967
-2.3870610883
-2.2643806607
-2.1826378994
-2.2643806607
-2.3870610883
-2.2149880967
-2.3870610883

SCALARS	sig_11	float	1
LOOKUP_TABLE	default
458.9249240284
450.2759933239
458.9249240285
459.1201956853
441.4946289185
459.1201956854
458.9249240284
450.2759933239
458.9249240284
125.3843806312
27.0289199477
125.3843806312
41.3411876272
-12.5772590975
41.3411876272
125.3843806312
27.0289199477
125.3843806312
9.1261440606
-153.4362264546
9.1261440605
-128.6316466637
-193.3433531989
-128.6316466637
9.1261440605
-153.4362264546
9.1261440605

SCALARS	sig_22	float	1
LOOKUP_TABLE	default
447.5111661613
441.829566856
447.5111661614
448.7961279265
434.1378925589
448.7961279265
447.5111661613
441.829566856
447.5111661613
94.8504920022
15.8045202353
94.8504920022
11.0563701172
-23.5525876909
11.0563701172
94.8504920022
15.8045202353
94.8504920022
19.9566960275
-77.1933747749
19.9566960274
-134.8313998232
-134.1308066455
-134.8313998232
19.9566960275
-77.1933747749
19.9566960274

SCALARS	sig_33	float	1
LOOKUP_TABLE	default
1254.2266916166
1232.2133098007
1254.2266916167
1257.8883673301
1216.5237312898
1257.8883673301
1254.2266916166
1232.2133098007
1254.2266916166
1263.5899541589
1031.4083346541
1263.5899541589
1082.4322118033
946.4672928691
1082.4322118033
1263.5899541589
1031.4083346541
1263.5899541589
1429.2630582998
1012.4128212535
1429.2630582998
1077.3710075598
872.305425879
1077.3710075598
1429.2630582998
1012.4128212535
1429.2630582998

SCALARS vonMises	float	1
LOOKUP_TABLE	default
577.2654832442
561.1212887583
577.2654832442
574.2306438245
551.7503520759
574.2306438245
577.2654832442
561.1212887583
577.2654832442
826.1615528269
723.4527359778
826.1615528269
754.2998229395
687.3185504593
754.2998229395
826.1615528269
723.4527359778
826.1615528269
1095.0929611465
886.209518628
1095.0929611465
932.4063296867
781.3245029858
932.4063296867
1095.0929611465
886.209518628
1095.0929611465
