# vtk DataFile Version 2.0
Results
ASCII
DATASET UNSTRUCTURED_GRID
POINTS         27           float
0.0	0.0	0.0	
0.5	0.0	0.0	
1.0	0.0	0.0	
0.0	0.4	0.0	
0.5	0.4	0.0	
1.0	0.4	0.0	
0.0	0.8	0.0	
0.5	0.8	0.0	
1.0	0.8	0.0	
0.0	0.0	0.7	
0.5	0.0	0.7	
1.0	0.0	0.7	
0.0	0.4	0.7	
0.5	0.4	0.7	
1.0	0.4	0.7	
0.0	0.8	0.7	
0.5	0.8	0.7	
1.0	0.8	0.7	
0.0	0.0	1.4	
0.5	0.0	1.4	
1.0	0.0	1.4	
0.0	0.4	1.4	
0.5	0.4	1.4	
1.0	0.4	1.4	
0.0	0.8	1.4	
0.5	0.8	1.4	
1.0	0.8	1.4	

CELLS	8	72
 8	0	1	4	3	9	10	13	12	
 8	1	2	5	4	10	11	14	13	
 8	4	5	8	7	13	14	17	16	
 8	3	4	7	6	12	13	16	15	
 8	9	10	13	12	18	19	22	21	
 8	10	11	14	13	19	20	23	22	
 8	13	14	17	16	22	23	26	25	
 8	12	13	16	15	21	22	25	24	

CELL_TYPES	8
 12
 12
 12
 12
 12
 12
 12
 12

POINT_DATA	27
VECTORS	u 	float 
0.0	0.0	0.0
0.0	0.0	0.0
0.0	0.0	0.0
0.0	0.0	0.0
0.0	0.0	0.0
0.0	0.0	0.0
0.0	0.0	0.0
0.0	0.0	0.0
0.0	0.0	0.0
1.4e-09	1.3e-09	5.8e-09
0.0	1.2e-09	5.6e-09
-1.4e-09	1.3e-09	5.8e-09
1.4e-09	0.0	5.9e-09
0.0	0.0	5.4e-09
-1.4e-09	0.0	5.9e-09
1.4e-09	-1.3e-09	5.8e-09
0.0	-1.2e-09	5.6e-09
-1.4e-09	-1.3e-09	5.8e-09
2.2e-09	1.7e-09	1.62e-08
0.0	1e-09	1.12e-08
-2.2e-09	1.7e-09	1.62e-08
1.9e-09	0.0	1.23e-08
-0.0	0.0	1.06e-08
-1.9e-09	0.0	1.23e-08
2.2e-09	-1.7e-09	1.62e-08
-0.0	-1e-09	1.12e-08
-2.2e-09	-1.7e-09	1.62e-08

VECTORS	v 	float 
0.0	0.0	0.0
0.0	0.0	0.0
0.0	0.0	0.0
0.0	0.0	0.0
0.0	0.0	0.0
0.0	0.0	0.0
0.0	0.0	0.0
0.0	0.0	0.0
0.0	0.0	0.0
7e-10	7e-10	2.9e-09
0.0	6e-10	2.8e-09
-7e-10	7e-10	2.9e-09
7e-10	-0.0	2.9e-09
0.0	-0.0	2.7e-09
-7e-10	-0.0	2.9e-09
7e-10	-7e-10	2.9e-09
0.0	-6e-10	2.8e-09
-7e-10	-7e-10	2.9e-09
1.1e-09	9e-10	8.1e-09
0.0	5e-10	5.6e-09
-1.1e-09	9e-10	8.1e-09
9e-10	0.0	6.2e-09
0.0	-0.0	5.3e-09
-9e-10	0.0	6.2e-09
1.1e-09	-9e-10	8.1e-09
0.0	-5e-10	5.6e-09
-1.1e-09	-9e-10	8.1e-09

VECTORS	a 	float 
0.0	0.0	0.0
0.0	0.0	0.0
0.0	0.0	0.0
0.0	0.0	0.0
0.0	0.0	0.0
0.0	0.0	0.0
0.0	0.0	0.0
0.0	0.0	0.0
0.0	0.0	0.0
-7e-10	-7e-10	-2.9e-09
-0.0	-6e-10	-2.8e-09
7e-10	-7e-10	-2.9e-09
-7e-10	0.0	-2.9e-09
-0.0	0.0	-2.7e-09
7e-10	0.0	-2.9e-09
-7e-10	7e-10	-2.9e-09
-0.0	6e-10	-2.8e-09
7e-10	7e-10	-2.9e-09
-1.1e-09	-9e-10	-8.1e-09
-0.0	-5e-10	-5.6e-09
1.1e-09	-9e-10	-8.1e-09
-9e-10	-0.0	-6.2e-09
-0.0	0.0	-5.3e-09
9e-10	-0.0	-6.2e-09
-1.1e-09	9e-10	-8.1e-09
-0.0	5e-10	-5.6e-09
1.1e-09	9e-10	-8.1e-09

SCALARS	phi	float 1
LOOKUP_TABLE	default
0.0
0.0
0.0
0.0
0.0
0.0
0.0
0.0
0.0
-1.3332895678
-1.4297859326
-1.3332895678
-1.405173432
-1.4460377159
-1.405173432
-1.3332895678
-1.4297859326
-1.3332895678
-2.3870611164
-2.2149881284
-2.3870611164
-2.264380692
-2.1826379301
-2.264380692
-2.3870611164
-2.2149881284
-2.3870611164

SCALARS	sig_11	float	1
LOOKUP_TABLE	default
458.9249179096
450.2759878704
458.9249179096
459.1201897449
441.4946237859
459.1201897449
458.9249179096
450.2759878704
458.9249179096
125.3843698142
27.0289120211
125.3843698142
41.3411788791
-12.5772660837
41.3411788791
125.3843698142
27.0289120211
125.3843698142
9.1261252452
-153.4362389648
9.1261252452
-128.6316599895
-193.3433627351
-128.6316599895
9.1261252452
-153.4362389648
9.1261252452

SCALARS	sig_22	float	1
LOOKUP_TABLE	default
447.51115999
441.8295611346
447.51115999
448.7961222211
434.1378874153
448.7961222211
447.51115999
441.8295611346
447.51115999
94.8504810232
15.8045121186
94.8504810232
11.0563613457
-23.5525947344
11.0563613457
94.8504810232
15.8045121186
94.8504810232
19.956677263
-77.1933868628
19.956677263
-134.83141316
-134.1308158028
-134.83141316
19.956677263
-77.1933868628
19.956677263

SCALARS	sig_33	float	1
LOOKUP_TABLE	default
1254.2266797943
1232.2132986156
1254.2266797943
1257.8883556566
1216.5237205543
1257.8883556566
1254.2266797943
1232.2132986156
1254.2266797943
1263.5899344871
1031.4083203773
1263.5899344871
1082.4321962086
946.4672804117
1082.4321962086
1263.5899344871
1031.4083203773
1263.5899344871
1429.2630233917
1012.4127993083
1429.2630233917
1077.370983934
872.3054098627
1077.370983934
1429.2630233917
1012.4127993083
1429.2630233917

SCALARS vonMises	float	1
LOOKUP_TABLE	default
577.2654788426
561.1212845979
577.2654788426
574.2306394744
551.7503480724
574.2306394744
577.2654788426
561.1212845979
577.2654788426
826.1615466859
723.4527316372
826.1615466859
754.2998181793
687.3185466958
754.2998181793
826.1615466859
723.4527316372
826.1615466859
1095.0929526798
886.2095138248
1095.0929526798
932.4063242455
781.3244992311
932.4063242455
1095.0929526798
886.2095138248
1095.0929526798
