# vtk DataFile Version 2.0
Results
ASCII
DATASET UNSTRUCTURED_GRID
POINTS         27           float
0.0	0.0	0.0	
0.5	0.0	0.0	
1.0	0.0	0.0	
0.0	0.4	0.0	
0.5	0.4	0.0	
1.0	0.4	0.0	
0.0	0.8	0.0	
0.5	0.8	0.0	
1.0	0.8	0.0	
0.0	0.0	0.7	
0.5	0.0	0.7	
1.0	0.0	0.7	
0.0	0.4	0.7	
0.5	0.4	0.7	
1.0	0.4	0.7	
0.0	0.8	0.7	
0.5	0.8	0.7	
1.0	0.8	0.7	
0.0	0.0	1.4	
0.5	0.0	1.4	
1.0	0.0	1.4	
0.0	0.4	1.4	
0.5	0.4	1.4	
1.0	0.4	1.4	
0.0	0.8	1.4	
0.5	0.8	1.4	
1.0	0.8	1.4	

CELLS	8	72
 8	0	1	4	3	9	10	13	12	
 8	1	2	5	4	10	11	14	13	
 8	4	5	8	7	13	14	17	16	
 8	3	4	7	6	12	13	16	15	
 8	9	10	13	12	18	19	22	21	
 8	10	11	14	13	19	20	23	22	
 8	13	14	17	16	22	23	26	25	
 8	12	13	16	15	21	22	25	24	

CELL_TYPES	8
 12
 12
 12
 12
 12
 12
 12
 12

POINT_DATA	27
VECTORS	u 	float 
0.0	0.0	0.0
0.0	0.0	0.0
0.0	0.0	0.0
0.0	0.0	0.0
0.0	0.0	0.0
0.0	0.0	0.0
0.0	0.0	0.0
0.0	0.0	0.0
0.0	0.0	0.0
-1.3e-09	-1.3e-09	-5.9e-09
-0.0	-1.2e-09	-5.8e-09
1.3e-09	-1.3e-09	-5.9e-09
-1.4e-09	-0.0	-6e-09
-0.0	-0.0	-5.6e-09
1.3e-09	-0.0	-6e-09
-1.3e-09	1.3e-09	-5.9e-09
-0.0	1.2e-09	-5.8e-09
1.3e-09	1.3e-09	-5.9e-09
-2.1e-09	-1.7e-09	-1.65e-08
-0.0	-1e-09	-1.14e-08
2.1e-09	-1.7e-09	-1.64e-08
-1.8e-09	-0.0	-1.26e-08
-0.0	-0.0	-1.08e-08
1.8e-09	-0.0	-1.26e-08
-2.1e-09	1.6e-09	-1.65e-08
-0.0	9e-10	-1.14e-08
2e-09	1.6e-09	-1.64e-08

VECTORS	v 	float 
0.0	0.0	0.0
0.0	0.0	0.0
0.0	0.0	0.0
0.0	0.0	0.0
0.0	0.0	0.0
0.0	0.0	0.0
0.0	0.0	0.0
0.0	0.0	0.0
0.0	0.0	0.0
5e-10	5e-10	2.2e-09
0.0	4e-10	2.2e-09
-5e-10	5e-10	2.2e-09
5e-10	0.0	2.3e-09
0.0	0.0	2.1e-09
-5e-10	0.0	2.3e-09
5e-10	-5e-10	2.2e-09
0.0	-4e-10	2.2e-09
-5e-10	-5e-10	2.2e-09
8e-10	6e-10	6.2e-09
0.0	4e-10	4.3e-09
-8e-10	6e-10	6.2e-09
7e-10	0.0	4.7e-09
0.0	0.0	4.1e-09
-7e-10	0.0	4.7e-09
8e-10	-6e-10	6.2e-09
0.0	-3e-10	4.3e-09
-8e-10	-6e-10	6.2e-09

VECTORS	a 	float 
0.0	0.0	0.0
0.0	0.0	0.0
0.0	0.0	0.0
0.0	0.0	0.0
0.0	0.0	0.0
0.0	0.0	0.0
0.0	0.0	0.0
0.0	0.0	0.0
0.0	0.0	0.0
2e-10	2e-10	7e-10
0.0	1e-10	7e-10
-2e-10	2e-10	7e-10
2e-10	0.0	8e-10
0.0	0.0	7e-10
-2e-10	0.0	8e-10
2e-10	-2e-10	7e-10
0.0	-1e-10	7e-10
-2e-10	-2e-10	7e-10
3e-10	2e-10	2.1e-09
0.0	1e-10	1.4e-09
-3e-10	2e-10	2.1e-09
2e-10	0.0	1.6e-09
0.0	0.0	1.4e-09
-2e-10	0.0	1.6e-09
3e-10	-2e-10	2.1e-09
0.0	-1e-10	1.4e-09
-3e-10	-2e-10	2.1e-09

SCALARS	phi	float 1
LOOKUP_TABLE	default
0.0
0.0
0.0
0.0
0.0
0.0
0.0
0.0
0.0
-7.9725407925
-6.9423173396
-6.2888141479
-7.0985901055
-6.2579040527
-5.5061288368
-6.4571457469
-5.6106841061
-4.7889976966
-14.2811605521
-13.6011788415
-12.8813484724
-13.7401296417
-13.2125913354
-12.5149712525
-13.1295524338
-12.7535844703
-11.7170503619

SCALARS	sig_11	float	1
LOOKUP_TABLE	default
-432.2127562311
-426.6836174349
-436.5759272098
-435.0528115105
-420.2872627332
-439.234648505
-436.2433516702
-430.3334153639
-440.5635255795
-125.863754811
-27.6316585853
-126.1000800585
-41.8157725046
12.0988931509
-41.9924844346
-126.0486492325
-27.6105702716
-126.2927600775
-9.8655532292
153.2609496496
-10.0344926663
128.5028190513
193.8542303436
128.3706817571
-9.9412851411
153.329659061
-10.1291457675

SCALARS	sig_22	float	1
LOOKUP_TABLE	default
-421.0508208486
-418.404553251
-425.3090653336
-424.9876040123
-413.1147760054
-429.05299286
-425.0839136813
-422.0881173692
-429.2992572095
-95.9781939657
-16.8697410447
-95.9358765779
-12.1820955323
22.5779533792
-12.0444951114
-96.1696610725
-16.9528030941
-96.135051471
-20.3050896083
77.0883610238
-20.5859237917
135.1963571442
134.7963178362
134.9704753322
-20.3778017231
77.1061936533
-20.6754563118

SCALARS	sig_33	float	1
LOOKUP_TABLE	default
-1244.7709296439
-1225.271650308
-1246.1807866076
-1250.4956558275
-1211.4215130518
-1251.737303603
-1246.380461962
-1226.5405974522
-1247.7606551295
-1267.8042139056
-1035.2920148174
-1267.4429993285
-1086.2373792098
-949.9121316399
-1085.8760011439
-1267.6496834699
-1035.0132896993
-1267.2911510924
-1429.6869458581
-1011.3114852028
-1430.2963377173
-1076.172286023
-869.6742153778
-1076.9002558927
-1430.1236319197
-1011.7341069286
-1430.7424313268

SCALARS vonMises	float	1
LOOKUP_TABLE	default
588.1187394995
572.236945014
586.0462364819
585.2194780644
562.9306277151
583.1145703322
586.3588499862
570.4634181959
584.2935011983
827.9499482356
725.2785114445
827.7186077391
756.1121039316
689.1145326364
755.8925561316
827.7979385212
725.1077816565
827.5629536804
1094.6227018181
885.2364000853
1095.0203194266
931.5932725388
779.9064188317
932.0269017637
1095.0243720922
885.6377460098
1095.4096246154
