# vtk DataFile Version 2.0
Results
ASCII
DATASET UNSTRUCTURED_GRID
POINTS         27           float
0.0	0.0	0.0	
0.5	0.0	0.0	
1.0	0.0	0.0	
0.0	0.4	0.0	
0.5	0.4	0.0	
1.0	0.4	0.0	
0.0	0.8	0.0	
0.5	0.8	0.0	
1.0	0.8	0.0	
0.0	0.0	0.7	
0.5	0.0	0.7	
1.0	0.0	0.7	
0.0	0.4	0.7	
0.5	0.4	0.7	
1.0	0.4	0.7	
0.0	0.8	0.7	
0.5	0.8	0.7	
1.0	0.8	0.7	
0.0	0.0	1.4	
0.5	0.0	1.4	
1.0	0.0	1.4	
0.0	0.4	1.4	
0.5	0.4	1.4	
1.0	0.4	1.4	
0.0	0.8	1.4	
0.5	0.8	1.4	
1.0	0.8	1.4	

CELLS	8	72
 8	0	1	4	3	9	10	13	12	
 8	1	2	5	4	10	11	14	13	
 8	4	5	8	7	13	14	17	16	
 8	3	4	7	6	12	13	16	15	
 8	9	10	13	12	18	19	22	21	
 8	10	11	14	13	19	20	23	22	
 8	13	14	17	16	22	23	26	25	
 8	12	13	16	15	21	22	25	24	

CELL_TYPES	8
 12
 12
 12
 12
 12
 12
 12
 12

POINT_DATA	27
VECTORS	u 	float 
0.0	0.0	0.0
0.0	0.0	0.0
0.0	0.0	0.0
0.0	0.0	0.0
0.0	0.0	0.0
0.0	0.0	0.0
0.0	0.0	0.0
0.0	0.0	0.0
0.0	0.0	0.0
-1.3e-09	-1.3e-09	-5.9e-09
-0.0	-1.2e-09	-5.8e-09
1.3e-09	-1.3e-09	-5.9e-09
-1.4e-09	-0.0	-6e-09
-0.0	-0.0	-5.6e-09
1.3e-09	-0.0	-6e-09
-1.3e-09	1.3e-09	-5.9e-09
-0.0	1.2e-09	-5.8e-09
1.3e-09	1.3e-09	-5.9e-09
-2.1e-09	-1.7e-09	-1.65e-08
-0.0	-1e-09	-1.14e-08
2.1e-09	-1.7e-09	-1.64e-08
-1.8e-09	-0.0	-1.26e-08
-0.0	-0.0	-1.08e-08
1.8e-09	-0.0	-1.26e-08
-2.1e-09	1.6e-09	-1.65e-08
-0.0	9e-10	-1.14e-08
2e-09	1.6e-09	-1.64e-08

VECTORS	v 	float 
0.0	0.0	0.0
0.0	0.0	0.0
0.0	0.0	0.0
0.0	0.0	0.0
0.0	0.0	0.0
0.0	0.0	0.0
0.0	0.0	0.0
0.0	0.0	0.0
0.0	0.0	0.0
-6e-10	-6e-10	-3e-09
-0.0	-6e-10	-2.9e-09
6e-10	-6e-10	-2.9e-09
-7e-10	-0.0	-3e-09
-0.0	-0.0	-2.8e-09
7e-10	-0.0	-3e-09
-7e-10	6e-10	-3e-09
-0.0	6e-10	-2.9e-09
6e-10	6e-10	-2.9e-09
-1.1e-09	-9e-10	-8.2e-09
-0.0	-5e-10	-5.7e-09
1e-09	-9e-10	-8.2e-09
-9e-10	-0.0	-6.3e-09
-0.0	-0.0	-5.4e-09
9e-10	-0.0	-6.3e-09
-1.1e-09	8e-10	-8.2e-09
-0.0	4e-10	-5.7e-09
1e-09	8e-10	-8.2e-09

VECTORS	a 	float 
0.0	0.0	0.0
0.0	0.0	0.0
0.0	0.0	0.0
0.0	0.0	0.0
0.0	0.0	0.0
0.0	0.0	0.0
0.0	0.0	0.0
0.0	0.0	0.0
0.0	0.0	0.0
6e-10	6e-10	3e-09
0.0	6e-10	2.9e-09
-6e-10	6e-10	2.9e-09
7e-10	0.0	3e-09
0.0	0.0	2.8e-09
-7e-10	0.0	3e-09
7e-10	-6e-10	3e-09
0.0	-6e-10	2.9e-09
-6e-10	-6e-10	2.9e-09
1.1e-09	9e-10	8.2e-09
0.0	5e-10	5.7e-09
-1e-09	9e-10	8.2e-09
9e-10	0.0	6.3e-09
0.0	0.0	5.4e-09
-9e-10	0.0	6.3e-09
1.1e-09	-8e-10	8.2e-09
0.0	-4e-10	5.7e-09
-1e-09	-8e-10	8.2e-09

SCALARS	phi	float 1
LOOKUP_TABLE	default
0.0
0.0
0.0
0.0
0.0
0.0
0.0
0.0
0.0
-7.9725407923
-6.9423173396
-6.2888141481
-7.0985901056
-6.2579040528
-5.5061288371
-6.457145747
-5.6106841064
-4.7889976969
-14.2811605524
-13.6011788417
-12.881348473
-13.7401296419
-13.2125913358
-12.5149712536
-13.1295524342
-12.7535844711
-11.7170503641

SCALARS	sig_11	float	1
LOOKUP_TABLE	default
-432.2127598735
-426.6836218892
-436.5759309569
-435.052815868
-420.2872674898
-439.2346529467
-436.2433553802
-430.3334198668
-440.5635293495
-125.8637577547
-27.6316602338
-126.1000835094
-41.8157745345
12.0988921985
-41.9924867539
-126.0486526055
-27.6105721356
-126.2927635464
-9.8655609091
153.2609462271
-10.0345003997
128.5028149289
193.8542296798
128.3706780983
-9.9412929965
153.3296559761
-10.1291526832

SCALARS	sig_22	float	1
LOOKUP_TABLE	default
-421.0508243646
-418.4045574783
-425.3090689651
-424.987608294
-413.1147805842
-429.0529972347
-425.0839172747
-422.088121652
-429.2992608693
-95.9781966459
-16.8697418986
-95.9358798004
-12.1820975895
22.5779529365
-12.0444974831
-96.1696642076
-16.9528041775
-96.1350547178
-20.3050978552
77.0883585105
-20.5859321192
135.1963515699
134.7963172088
134.9704702188
-20.3778101327
77.1061915102
-20.6754637682

SCALARS	sig_33	float	1
LOOKUP_TABLE	default
-1244.77094104
-1225.2716634888
-1246.1807980096
-1250.4956688618
-1211.4215269848
-1251.737316644
-1246.3804733325
-1226.5406106106
-1247.7606665169
-1267.8042310593
-1035.2920292597
-1267.4430167954
-1086.2373948887
-949.9121452317
-1085.8760169302
-1267.6497008864
-1035.0133042099
-1267.2911684799
-1429.6869725071
-1011.3115039416
-1430.2963644358
-1076.1723075548
-869.6742311028
-1076.9002770157
-1430.1236587143
-1011.7341253548
-1430.7424573573

SCALARS vonMises	float	1
LOOKUP_TABLE	default
588.11874528
572.2369513859
586.0462421698
585.2194843533
562.9306342975
583.1145765508
586.3588556795
570.4634245024
584.2935068421
827.9499585164
725.2785207467
827.7186178659
756.1121135774
689.1145416999
755.8925656384
827.7979486729
725.1077908486
827.5629637306
1094.6227153649
885.2364114026
1095.0203330081
931.593284467
779.9064296034
932.0269137349
1095.0243856597
885.6377573559
1095.4096382777
