# vtk DataFile Version 2.0
Results
ASCII
DATASET UNSTRUCTURED_GRID
POINTS         27           float
0.0	0.0	0.0	
0.5	0.0	0.0	
1.0	0.0	0.0	
0.0	0.4	0.0	
0.5	0.4	0.0	
1.0	0.4	0.0	
0.0	0.8	0.0	
0.5	0.8	0.0	
1.0	0.8	0.0	
0.0	0.0	0.7	
0.5	0.0	0.7	
1.0	0.0	0.7	
0.0	0.4	0.7	
0.5	0.4	0.7	
1.0	0.4	0.7	
0.0	0.8	0.7	
0.5	0.8	0.7	
1.0	0.8	0.7	
0.0	0.0	1.4	
0.5	0.0	1.4	
1.0	0.0	1.4	
0.0	0.4	1.4	
0.5	0.4	1.4	
1.0	0.4	1.4	
0.0	0.8	1.4	
0.5	0.8	1.4	
1.0	0.8	1.4	

CELLS	8	72
 8	0	1	4	3	9	10	13	12	
 8	1	2	5	4	10	11	14	13	
 8	4	5	8	7	13	14	17	16	
 8	3	4	7	6	12	13	16	15	
 8	9	10	13	12	18	19	22	21	
 8	10	11	14	13	19	20	23	22	
 8	13	14	17	16	22	23	26	25	
 8	12	13	16	15	21	22	25	24	

CELL_TYPES	8
 12
 12
 12
 12
 12
 12
 12
 12

POINT_DATA	27
VECTORS	u 	float 
0.0	0.0	0.0
0.0	0.0	0.0
0.0	0.0	0.0
0.0	0.0	0.0
0.0	0.0	0.0
0.0	0.0	0.0
0.0	0.0	0.0
0.0	0.0	0.0
0.0	0.0	0.0
-1.3e-09	-1.3e-09	-5.9e-09
-0.0	-1.2e-09	-5.8e-09
1.3e-09	-1.3e-09	-5.9e-09
-1.4e-09	-0.0	-6e-09
-0.0	-0.0	-5.6e-09
1.3e-09	-0.0	-6e-09
-1.3e-09	1.3e-09	-5.9e-09
-0.0	1.2e-09	-5.8e-09
1.3e-09	1.3e-09	-5.9e-09
-2.1e-09	-1.7e-09	-1.65e-08
-0.0	-1e-09	-1.14e-08
2.1e-09	-1.7e-09	-1.64e-08
-1.8e-09	-0.0	-1.26e-08
-0.0	-0.0	-1.08e-08
1.8e-09	-0.0	-1.26e-08
-2.1e-09	1.6e-09	-1.65e-08
-0.0	9e-10	-1.14e-08
2e-09	1.6e-09	-1.64e-08

VECTORS	v 	float 
0.0	0.0	0.0
0.0	0.0	0.0
0.0	0.0	0.0
0.0	0.0	0.0
0.0	0.0	0.0
0.0	0.0	0.0
0.0	0.0	0.0
0.0	0.0	0.0
0.0	0.0	0.0
-0.0	0.0	0.0
0.0	0.0	0.0
0.0	0.0	0.0
0.0	0.0	0.0
0.0	0.0	0.0
0.0	0.0	0.0
-0.0	-0.0	0.0
0.0	-0.0	0.0
0.0	-0.0	0.0
-0.0	0.0	0.0
-0.0	0.0	0.0
0.0	0.0	0.0
0.0	0.0	0.0
-0.0	-0.0	0.0
0.0	0.0	0.0
0.0	0.0	0.0
0.0	0.0	0.0
0.0	0.0	0.0

VECTORS	a 	float 
0.0	0.0	0.0
0.0	0.0	0.0
0.0	0.0	0.0
0.0	0.0	0.0
0.0	0.0	0.0
0.0	0.0	0.0
0.0	0.0	0.0
0.0	0.0	0.0
0.0	0.0	0.0
-0.0	0.0	0.0
0.0	0.0	0.0
0.0	0.0	0.0
0.0	0.0	0.0
0.0	0.0	0.0
0.0	0.0	0.0
0.0	-0.0	0.0
0.0	0.0	0.0
0.0	-0.0	0.0
0.0	0.0	0.0
0.0	0.0	0.0
0.0	0.0	0.0
0.0	0.0	0.0
-0.0	0.0	0.0
0.0	0.0	0.0
0.0	0.0	0.0
0.0	0.0	0.0
0.0	0.0	0.0

SCALARS	phi	float 1
LOOKUP_TABLE	default
0.0
0.0
0.0
0.0
0.0
0.0
0.0
0.0
0.0
-7.9725407925
-6.9423173396
-6.2888141479
-7.0985901055
-6.2579040527
-5.5061288368
-6.4571457469
-5.6106841061
-4.7889976966
-14.2811605521
-13.6011788415
-12.8813484724
-13.7401296417
-13.2125913354
-12.5149712525
-13.1295524338
-12.7535844703
-11.7170503619

SCALARS	sig_11	float	1
LOOKUP_TABLE	default
-432.2127562322
-426.6836174358
-436.5759272105
-435.0528115114
-420.287262734
-439.2346485056
-436.2433516708
-430.3334153645
-440.5635255797
-125.8637548134
-27.6316585879
-126.1000800613
-41.815772507
12.0988931481
-41.992484438
-126.0486492348
-27.6105702747
-126.2927600813
-9.8655532293
153.2609496459
-10.0344926733
128.5028190486
193.8542303371
128.3706817468
-9.9412851458
153.3296590517
-10.1291457821

SCALARS	sig_22	float	1
LOOKUP_TABLE	default
-421.0508208497
-418.4045532519
-425.3090653343
-424.9876040132
-413.1147760062
-429.0529928606
-425.0839136818
-422.0881173698
-429.2992572097
-95.9781939682
-16.8697410475
-95.9358765808
-12.1820955347
22.5779533763
-12.0444951148
-96.1696610747
-16.952803097
-96.1350514748
-20.3050896082
77.0883610201
-20.5859237984
135.1963571415
134.7963178297
134.9704753215
-20.3778017281
77.106193644
-20.6754563268

SCALARS	sig_33	float	1
LOOKUP_TABLE	default
-1244.7709296451
-1225.2716503091
-1246.1807866084
-1250.4956558284
-1211.421513053
-1251.7373036038
-1246.3804619626
-1226.540597453
-1247.7606551296
-1267.8042139077
-1035.29201482
-1267.4429993315
-1086.2373792121
-949.912131643
-1085.8760011476
-1267.6496834721
-1035.0132897027
-1267.2911510966
-1429.6869458586
-1011.3114852064
-1430.2963377236
-1076.1722860257
-869.6742153839
-1076.9002559021
-1430.1236319243
-1011.734106937
-1430.7424313397

SCALARS vonMises	float	1
LOOKUP_TABLE	default
588.1187394995
572.2369450141
586.0462364819
585.2194780645
562.9306277153
583.1145703323
586.3588499863
570.463418196
584.2935011982
827.9499482353
725.2785114445
827.7186077392
756.1121039315
689.1145326366
755.8925561318
827.7979385213
725.1077816567
827.5629536808
1094.6227018183
885.2364000851
1095.0203194263
931.5932725387
779.9064188313
932.0269017631
1095.0243720921
885.6377460093
1095.4096246146
