# vtk DataFile Version 2.0
Results
ASCII
DATASET UNSTRUCTURED_GRID
POINTS         27           float
0.0	0.0	0.0	
0.5	0.0	0.0	
1.0	0.0	0.0	
0.0	0.4	0.0	
0.5	0.4	0.0	
1.0	0.4	0.0	
0.0	0.8	0.0	
0.5	0.8	0.0	
1.0	0.8	0.0	
0.0	0.0	0.7	
0.5	0.0	0.7	
1.0	0.0	0.7	
0.0	0.4	0.7	
0.5	0.4	0.7	
1.0	0.4	0.7	
0.0	0.8	0.7	
0.5	0.8	0.7	
1.0	0.8	0.7	
0.0	0.0	1.4	
0.5	0.0	1.4	
1.0	0.0	1.4	
0.0	0.4	1.4	
0.5	0.4	1.4	
1.0	0.4	1.4	
0.0	0.8	1.4	
0.5	0.8	1.4	
1.0	0.8	1.4	

CELLS	8	72
 8	0	1	4	3	9	10	13	12	
 8	1	2	5	4	10	11	14	13	
 8	4	5	8	7	13	14	17	16	
 8	3	4	7	6	12	13	16	15	
 8	9	10	13	12	18	19	22	21	
 8	10	11	14	13	19	20	23	22	
 8	13	14	17	16	22	23	26	25	
 8	12	13	16	15	21	22	25	24	

CELL_TYPES	8
 12
 12
 12
 12
 12
 12
 12
 12

POINT_DATA	27
VECTORS	u 	float 
0.0	0.0	0.0
0.0	0.0	0.0
0.0	0.0	0.0
0.0	0.0	0.0
0.0	0.0	0.0
0.0	0.0	0.0
0.0	0.0	0.0
0.0	0.0	0.0
0.0	0.0	0.0
-1.3e-09	-1.3e-09	-5.9e-09
-0.0	-1.2e-09	-5.8e-09
1.3e-09	-1.3e-09	-5.9e-09
-1.4e-09	-0.0	-6e-09
-0.0	-0.0	-5.6e-09
1.3e-09	-0.0	-6e-09
-1.3e-09	1.3e-09	-5.9e-09
-0.0	1.2e-09	-5.8e-09
1.3e-09	1.3e-09	-5.9e-09
-2.1e-09	-1.7e-09	-1.65e-08
-0.0	-1e-09	-1.14e-08
2.1e-09	-1.7e-09	-1.64e-08
-1.8e-09	-0.0	-1.26e-08
-0.0	-0.0	-1.08e-08
1.8e-09	-0.0	-1.26e-08
-2.1e-09	1.6e-09	-1.65e-08
-0.0	9e-10	-1.14e-08
2e-09	1.6e-09	-1.64e-08

VECTORS	v 	float 
0.0	0.0	0.0
0.0	0.0	0.0
0.0	0.0	0.0
0.0	0.0	0.0
0.0	0.0	0.0
0.0	0.0	0.0
0.0	0.0	0.0
0.0	0.0	0.0
0.0	0.0	0.0
3e-10	3e-10	1.5e-09
0.0	3e-10	1.5e-09
-3e-10	3e-10	1.5e-09
3e-10	0.0	1.5e-09
0.0	0.0	1.4e-09
-3e-10	0.0	1.5e-09
3e-10	-3e-10	1.5e-09
0.0	-3e-10	1.4e-09
-3e-10	-3e-10	1.5e-09
5e-10	4e-10	4.1e-09
0.0	2e-10	2.9e-09
-5e-10	4e-10	4.1e-09
5e-10	0.0	3.1e-09
0.0	0.0	2.7e-09
-4e-10	0.0	3.1e-09
5e-10	-4e-10	4.1e-09
0.0	-2e-10	2.9e-09
-5e-10	-4e-10	4.1e-09

VECTORS	a 	float 
0.0	0.0	0.0
0.0	0.0	0.0
0.0	0.0	0.0
0.0	0.0	0.0
0.0	0.0	0.0
0.0	0.0	0.0
0.0	0.0	0.0
0.0	0.0	0.0
0.0	0.0	0.0
1e-09	1e-09	4.4e-09
0.0	9e-10	4.4e-09
-1e-09	1e-09	4.4e-09
1e-09	0.0	4.5e-09
0.0	0.0	4.2e-09
-1e-09	0.0	4.5e-09
1e-09	-9e-10	4.4e-09
0.0	-9e-10	4.3e-09
-1e-09	-9e-10	4.4e-09
1.6e-09	1.3e-09	1.24e-08
0.0	7e-10	8.6e-09
-1.5e-09	1.3e-09	1.23e-08
1.4e-09	0.0	9.4e-09
0.0	0.0	8.1e-09
-1.3e-09	0.0	9.4e-09
1.6e-09	-1.2e-09	1.23e-08
0.0	-7e-10	8.6e-09
-1.5e-09	-1.2e-09	1.23e-08

SCALARS	phi	float 1
LOOKUP_TABLE	default
0.0
0.0
0.0
0.0
0.0
0.0
0.0
0.0
0.0
-7.9725407925
-6.9423173396
-6.288814148
-7.0985901055
-6.2579040527
-5.5061288368
-6.4571457469
-5.6106841061
-4.7889976966
-14.2811605521
-13.6011788415
-12.8813484724
-13.7401296417
-13.2125913354
-12.5149712525
-13.1295524338
-12.7535844703
-11.7170503619

SCALARS	sig_11	float	1
LOOKUP_TABLE	default
-432.212756153
-426.6836173853
-436.5759271826
-435.052811463
-420.2872626958
-439.2346484845
-436.2433516442
-430.3334153439
-440.5635255857
-125.8637546624
-27.6316584612
-126.1000799543
-41.8157723931
12.0988932623
-41.9924843204
-126.0486491533
-27.6105701721
-126.2927599557
-9.8655533428
153.2609497515
-10.0344924165
128.5028190931
193.8542305429
128.370682123
-9.9412850396
153.3296593627
-10.1291451779

SCALARS	sig_22	float	1
LOOKUP_TABLE	default
-421.0508207671
-418.4045531999
-425.3090652993
-424.9876039646
-413.1147759684
-429.0529928387
-425.0839136623
-422.0881173519
-429.299257218
-95.9781938087
-16.8697409167
-95.935876465
-12.1820954195
22.5779534894
-12.0444949948
-96.1696610014
-16.952803002
-96.1350513532
-20.3050897303
77.0883611229
-20.585923611
135.1963571917
134.7963180353
134.9704756979
-20.3778015506
77.1061939562
-20.6754557067

SCALARS	sig_33	float	1
LOOKUP_TABLE	default
-1244.770929555
-1225.2716502478
-1246.1807865697
-1250.4956557729
-1211.4215130022
-1251.7373035744
-1246.3804619339
-1226.5405974251
-1247.7606551434
-1267.8042137826
-1035.2920147002
-1267.442999217
-1086.2373791097
-949.912131526
-1085.8760010169
-1267.6496833905
-1035.0132895916
-1267.2911509567
-1429.686945918
-1011.3114850926
-1430.296337514
-1076.1722859607
-869.6742151906
-1076.9002555688
-1430.1236317834
-1011.7341066585
-1430.7424308202

SCALARS vonMises	float	1
LOOKUP_TABLE	default
588.1187394972
572.2369450079
586.0462364784
585.2194780608
562.9306277064
583.1145703277
586.358849984
570.4634181907
584.293501203
827.9499482602
725.2785114517
827.7186077372
756.1121039408
689.1145326347
755.8925561228
827.7979385181
725.1077816476
827.5629536657
1094.6227017922
885.2364000841
1095.0203194331
931.5932725316
779.9064188406
932.0269017855
1095.0243720915
885.6377460255
1095.4096246533
