# vtk DataFile Version 2.0
Results
ASCII
DATASET UNSTRUCTURED_GRID
POINTS         27           float
0.0	0.0	0.0	
0.5	0.0	0.0	
1.0	0.0	0.0	
0.0	0.4	0.0	
0.5	0.4	0.0	
1.0	0.4	0.0	
0.0	0.8	0.0	
0.5	0.8	0.0	
1.0	0.8	0.0	
0.0	0.0	0.7	
0.5	0.0	0.7	
1.0	0.0	0.7	
0.0	0.4	0.7	
0.5	0.4	0.7	
1.0	0.4	0.7	
0.0	0.8	0.7	
0.5	0.8	0.7	
1.0	0.8	0.7	
0.0	0.0	1.4	
0.5	0.0	1.4	
1.0	0.0	1.4	
0.0	0.4	1.4	
0.5	0.4	1.4	
1.0	0.4	1.4	
0.0	0.8	1.4	
0.5	0.8	1.4	
1.0	0.8	1.4	

CELLS	8	72
 8	0	1	4	3	9	10	13	12	
 8	1	2	5	4	10	11	14	13	
 8	4	5	8	7	13	14	17	16	
 8	3	4	7	6	12	13	16	15	
 8	9	10	13	12	18	19	22	21	
 8	10	11	14	13	19	20	23	22	
 8	13	14	17	16	22	23	26	25	
 8	12	13	16	15	21	22	25	24	

CELL_TYPES	8
 12
 12
 12
 12
 12
 12
 12
 12

POINT_DATA	27
VECTORS	u 	float 
0.0	0.0	0.0
0.0	0.0	0.0
0.0	0.0	0.0
0.0	0.0	0.0
0.0	0.0	0.0
0.0	0.0	0.0
0.0	0.0	0.0
0.0	0.0	0.0
0.0	0.0	0.0
-1.3e-09	-1.3e-09	-5.9e-09
-0.0	-1.2e-09	-5.8e-09
1.3e-09	-1.3e-09	-5.9e-09
-1.4e-09	-0.0	-6e-09
-0.0	-0.0	-5.6e-09
1.3e-09	-0.0	-6e-09
-1.3e-09	1.3e-09	-5.9e-09
-0.0	1.2e-09	-5.8e-09
1.3e-09	1.3e-09	-5.9e-09
-2.1e-09	-1.7e-09	-1.65e-08
-0.0	-1e-09	-1.14e-08
2.1e-09	-1.7e-09	-1.64e-08
-1.8e-09	-0.0	-1.26e-08
-0.0	-0.0	-1.08e-08
1.8e-09	-0.0	-1.26e-08
-2.1e-09	1.6e-09	-1.65e-08
-0.0	9e-10	-1.14e-08
2e-09	1.6e-09	-1.64e-08

VECTORS	v 	float 
0.0	0.0	0.0
0.0	0.0	0.0
0.0	0.0	0.0
0.0	0.0	0.0
0.0	0.0	0.0
0.0	0.0	0.0
0.0	0.0	0.0
0.0	0.0	0.0
0.0	0.0	0.0
-1.3e-09	-1.3e-09	-5.9e-09
-0.0	-1.2e-09	-5.8e-09
1.3e-09	-1.3e-09	-5.9e-09
-1.4e-09	-0.0	-6e-09
-0.0	-0.0	-5.6e-09
1.3e-09	-0.0	-6e-09
-1.3e-09	1.3e-09	-5.9e-09
-0.0	1.2e-09	-5.8e-09
1.3e-09	1.3e-09	-5.9e-09
-2.1e-09	-1.7e-09	-1.65e-08
-0.0	-1e-09	-1.14e-08
2.1e-09	-1.7e-09	-1.64e-08
-1.8e-09	-0.0	-1.26e-08
-0.0	-0.0	-1.08e-08
1.8e-09	-0.0	-1.26e-08
-2.1e-09	1.6e-09	-1.65e-08
-0.0	9e-10	-1.14e-08
2e-09	1.6e-09	-1.64e-08

VECTORS	a 	float 
0.0	0.0	0.0
0.0	0.0	0.0
0.0	0.0	0.0
0.0	0.0	0.0
0.0	0.0	0.0
0.0	0.0	0.0
0.0	0.0	0.0
0.0	0.0	0.0
0.0	0.0	0.0
-1.3e-09	-1.3e-09	-5.9e-09
-0.0	-1.2e-09	-5.8e-09
1.3e-09	-1.3e-09	-5.9e-09
-1.4e-09	-0.0	-6e-09
-0.0	-0.0	-5.6e-09
1.3e-09	-0.0	-6e-09
-1.3e-09	1.3e-09	-5.9e-09
-0.0	1.2e-09	-5.8e-09
1.3e-09	1.3e-09	-5.9e-09
-2.1e-09	-1.7e-09	-1.65e-08
-0.0	-1e-09	-1.14e-08
2.1e-09	-1.7e-09	-1.64e-08
-1.8e-09	-0.0	-1.26e-08
-0.0	-0.0	-1.08e-08
1.8e-09	-0.0	-1.26e-08
-2.1e-09	1.6e-09	-1.65e-08
-0.0	9e-10	-1.14e-08
2e-09	1.6e-09	-1.64e-08

SCALARS	phi	float 1
LOOKUP_TABLE	default
0.0
0.0
0.0
0.0
0.0
0.0
0.0
0.0
0.0
-7.9725408519
-6.9423174163
-6.2888142223
-7.0985901818
-6.257904137
-5.5061289237
-6.4571458202
-5.6106841921
-4.788997783
-14.2811607652
-13.6011790308
-12.8813487145
-13.74012984
-13.2125915293
-12.5149714758
-13.1295526732
-12.7535846814
-11.7170506323

SCALARS	sig_11	float	1
LOOKUP_TABLE	default
-432.2126789865
-426.6835401093
-436.5758574009
-435.0527343239
-420.2871842098
-439.2345769064
-436.2432801794
-430.3333419883
-440.56345827
-125.8635179031
-27.6314344513
-126.0998664432
-41.8155465005
12.0991135378
-41.9922695334
-126.0484324416
-27.6103541754
-126.2925433489
-9.8652352589
153.2612601764
-10.0341785631
128.5031277264
193.8545461183
128.3710120118
-9.9409767312
153.3299853741
-10.1287916513

SCALARS	sig_22	float	1
LOOKUP_TABLE	default
-421.0507424756
-418.4044750384
-425.3089946328
-424.9875261993
-413.114696992
-429.0529207578
-425.0838416124
-422.0880434965
-429.2991893155
-95.9779539224
-16.8695148932
-95.9356606319
-12.1818673331
22.5781751558
-12.0442782969
-96.169442609
-16.9525858431
-96.1348328572
-20.3047720595
77.0886713193
-20.5856107525
135.1966646123
134.7966331232
134.9708049045
-20.3774933759
77.1065210068
-20.6751009279

SCALARS	sig_33	float	1
LOOKUP_TABLE	default
-1244.7708410157
-1225.2715567227
-1246.180706334
-1250.4955640582
-1211.4214152778
-1251.7372195715
-1246.3803797057
-1226.5405097327
-1247.7605810117
-1267.8039910355
-1035.2918019916
-1267.4427947129
-1086.2371661327
-949.9119210602
-1085.8757954753
-1267.6494767037
-1035.0130825016
-1267.2909436258
-1429.6866347112
-1011.3111889265
-1430.2960322239
-1076.1719918825
-869.6739206514
-1076.8999444116
-1430.1233300153
-1011.7337975974
-1430.7420933044

SCALARS vonMises	float	1
LOOKUP_TABLE	default
588.1187364712
572.2369359221
586.0462336497
585.2194705211
562.9306147261
583.1145641857
586.358846952
570.4634102858
584.2935007543
827.9499610226
725.2785212841
827.7186162945
756.1121148191
689.1145407698
755.8925640798
827.7979476508
725.1077892637
827.5629618449
1094.6227080413
885.2364128707
1095.02032705
931.5932842712
779.9064355506
932.0269159041
1095.0243787926
885.6377603034
1095.4096355877
