# vtk DataFile Version 2.0
Results
ASCII
DATASET UNSTRUCTURED_GRID
POINTS         27           float
0.0	0.0	0.0	
0.5	0.0	0.0	
1.0	0.0	0.0	
0.0	0.4	0.0	
0.5	0.4	0.0	
1.0	0.4	0.0	
0.0	0.8	0.0	
0.5	0.8	0.0	
1.0	0.8	0.0	
0.0	0.0	0.7	
0.5	0.0	0.7	
1.0	0.0	0.7	
0.0	0.4	0.7	
0.5	0.4	0.7	
1.0	0.4	0.7	
0.0	0.8	0.7	
0.5	0.8	0.7	
1.0	0.8	0.7	
0.0	0.0	1.4	
0.5	0.0	1.4	
1.0	0.0	1.4	
0.0	0.4	1.4	
0.5	0.4	1.4	
1.0	0.4	1.4	
0.0	0.8	1.4	
0.5	0.8	1.4	
1.0	0.8	1.4	

CELLS	8	72
 8	0	1	4	3	9	10	13	12	
 8	1	2	5	4	10	11	14	13	
 8	4	5	8	7	13	14	17	16	
 8	3	4	7	6	12	13	16	15	
 8	9	10	13	12	18	19	22	21	
 8	10	11	14	13	19	20	23	22	
 8	13	14	17	16	22	23	26	25	
 8	12	13	16	15	21	22	25	24	

CELL_TYPES	8
 12
 12
 12
 12
 12
 12
 12
 12

POINT_DATA	27
VECTORS	u 	float 
0.0	0.0	0.0
0.0	0.0	0.0
0.0	0.0	0.0
0.0	0.0	0.0
0.0	0.0	0.0
0.0	0.0	0.0
0.0	0.0	0.0
0.0	0.0	0.0
0.0	0.0	0.0
1.3e-09	1.3e-09	5.9e-09
0.0	1.2e-09	5.8e-09
-1.3e-09	1.3e-09	5.9e-09
1.3e-09	0.0	6e-09
0.0	0.0	5.6e-09
-1.3e-09	0.0	6e-09
1.3e-09	-1.3e-09	5.9e-09
0.0	-1.2e-09	5.8e-09
-1.3e-09	-1.3e-09	5.9e-09
2.1e-09	1.7e-09	1.64e-08
0.0	9e-10	1.14e-08
-2.1e-09	1.7e-09	1.64e-08
1.8e-09	0.0	1.26e-08
0.0	0.0	1.08e-08
-1.8e-09	0.0	1.26e-08
2.1e-09	-1.7e-09	1.64e-08
0.0	-9e-10	1.14e-08
-2.1e-09	-1.7e-09	1.64e-08

VECTORS	v 	float 
0.0	0.0	0.0
0.0	0.0	0.0
0.0	0.0	0.0
0.0	0.0	0.0
0.0	0.0	0.0
0.0	0.0	0.0
0.0	0.0	0.0
0.0	0.0	0.0
0.0	0.0	0.0
6e-10	6e-10	3e-09
0.0	6e-10	2.9e-09
-6e-10	6e-10	3e-09
7e-10	-0.0	3e-09
0.0	-0.0	2.8e-09
-7e-10	-0.0	3e-09
6e-10	-6e-10	3e-09
0.0	-6e-10	2.9e-09
-6e-10	-6e-10	3e-09
1e-09	8e-10	8.2e-09
-0.0	5e-10	5.7e-09
-1e-09	8e-10	8.2e-09
9e-10	-0.0	6.3e-09
0.0	-0.0	5.4e-09
-9e-10	0.0	6.3e-09
1e-09	-8e-10	8.2e-09
0.0	-5e-10	5.7e-09
-1e-09	-8e-10	8.2e-09

VECTORS	a 	float 
0.0	0.0	0.0
0.0	0.0	0.0
0.0	0.0	0.0
0.0	0.0	0.0
0.0	0.0	0.0
0.0	0.0	0.0
0.0	0.0	0.0
0.0	0.0	0.0
0.0	0.0	0.0
-6e-10	-6e-10	-3e-09
-0.0	-6e-10	-2.9e-09
6e-10	-6e-10	-3e-09
-7e-10	0.0	-3e-09
-0.0	0.0	-2.8e-09
7e-10	0.0	-3e-09
-6e-10	6e-10	-3e-09
-0.0	6e-10	-2.9e-09
6e-10	6e-10	-3e-09
-1e-09	-8e-10	-8.2e-09
0.0	-5e-10	-5.7e-09
1e-09	-8e-10	-8.2e-09
-9e-10	0.0	-6.3e-09
-0.0	0.0	-5.4e-09
9e-10	-0.0	-6.3e-09
-1e-09	8e-10	-8.2e-09
-0.0	5e-10	-5.7e-09
1e-09	8e-10	-8.2e-09

SCALARS	phi	float 1
LOOKUP_TABLE	default
0.0
0.0
0.0
0.0
0.0
0.0
0.0
0.0
0.0
6.374321695
6.2770458593
6.374321695
6.3019533527
6.2603160136
6.3019533527
6.374321695
6.2770458593
6.374321695
13.0043906548
13.177379682
13.0043906548
13.1276932389
13.2103359817
13.1276932389
13.0043906548
13.177379682
13.0043906548

SCALARS	sig_11	float	1
LOOKUP_TABLE	default
436.4054624895
428.5074487153
436.4054624895
437.144921791
420.2811015968
437.144921791
436.4054624895
428.5074487153
436.4054624895
126.0749206595
27.6217343317
126.0749206595
41.9048052829
-12.0961509503
41.9048052829
126.0749206595
27.6217343317
126.0749206595
9.9836174267
-153.2950584391
9.9836174267
-128.4375558675
-193.8459652477
-128.4375558675
9.9836174267
-153.2950584391
9.9836174267

SCALARS	sig_22	float	1
LOOKUP_TABLE	default
425.1922393331
420.2452316493
425.1922393331
427.0214117119
413.1085975794
427.0214117119
425.1922393331
420.2452316493
425.1922393331
96.0532447354
16.9113731736
96.0532447354
12.1141625944
-22.5754788781
12.1141625944
96.0532447354
16.9113731736
96.0532447354
20.4783556195
-77.0995379188
20.4783556195
-135.0817369879
-134.7893640228
-135.0817369879
20.4783556195
-77.0995379188
20.4783556195

SCALARS	sig_33	float	1
LOOKUP_TABLE	default
1246.2777596041
1225.9051623874
1246.2777596041
1251.1170458471
1211.4166751171
1251.1170458471
1246.2777596041
1225.9051623874
1246.2777596041
1267.546088018
1035.1525332198
1267.546088018
1086.057297152
949.9134032483
1086.057297152
1267.546088018
1035.1525332198
1267.546088018
1430.2065633477
1011.521735601
1430.2065633477
1076.5369412205
869.6792082315
1076.5369412205
1430.2065633477
1011.521735601
1430.2065633477

SCALARS vonMises	float	1
LOOKUP_TABLE	default
586.2026814835
571.3498964025
586.2026814835
584.1662840727
562.931086242
584.1662840727
586.2026814835
571.3498964025
586.2026814835
827.757462907
725.1924380487
827.757462907
756.0019183657
689.1132456584
756.0019183657
827.757462907
725.1924380487
827.757462907
1095.0219797659
885.4378712926
1095.0219797659
931.8112535314
779.9057229797
931.8112535314
1095.0219797659
885.4378712926
1095.0219797659
