# vtk DataFile Version 2.0
Results
ASCII
DATASET UNSTRUCTURED_GRID
POINTS         27           float
0.0	0.0	0.0	
0.5	0.0	0.0	
1.0	0.0	0.0	
0.0	0.4	0.0	
0.5	0.4	0.0	
1.0	0.4	0.0	
0.0	0.8	0.0	
0.5	0.8	0.0	
1.0	0.8	0.0	
0.0	0.0	0.7	
0.5	0.0	0.7	
1.0	0.0	0.7	
0.0	0.4	0.7	
0.5	0.4	0.7	
1.0	0.4	0.7	
0.0	0.8	0.7	
0.5	0.8	0.7	
1.0	0.8	0.7	
0.0	0.0	1.4	
0.5	0.0	1.4	
1.0	0.0	1.4	
0.0	0.4	1.4	
0.5	0.4	1.4	
1.0	0.4	1.4	
0.0	0.8	1.4	
0.5	0.8	1.4	
1.0	0.8	1.4	

CELLS	8	72
 8	0	1	4	3	9	10	13	12	
 8	1	2	5	4	10	11	14	13	
 8	4	5	8	7	13	14	17	16	
 8	3	4	7	6	12	13	16	15	
 8	9	10	13	12	18	19	22	21	
 8	10	11	14	13	19	20	23	22	
 8	13	14	17	16	22	23	26	25	
 8	12	13	16	15	21	22	25	24	

CELL_TYPES	8
 12
 12
 12
 12
 12
 12
 12
 12

POINT_DATA	27
VECTORS	u 	float 
0.0	0.0	0.0
0.0	0.0	0.0
0.0	0.0	0.0
0.0	0.0	0.0
0.0	0.0	0.0
0.0	0.0	0.0
0.0	0.0	0.0
0.0	0.0	0.0
0.0	0.0	0.0
1.3e-09	1.3e-09	5.9e-09
0.0	1.2e-09	5.8e-09
-1.3e-09	1.3e-09	5.9e-09
1.3e-09	0.0	6e-09
-0.0	0.0	5.6e-09
-1.3e-09	0.0	6e-09
1.3e-09	-1.3e-09	5.9e-09
-0.0	-1.2e-09	5.8e-09
-1.3e-09	-1.3e-09	5.9e-09
2.1e-09	1.7e-09	1.64e-08
-0.0	9e-10	1.14e-08
-2.1e-09	1.7e-09	1.64e-08
1.8e-09	0.0	1.26e-08
-0.0	0.0	1.08e-08
-1.8e-09	0.0	1.26e-08
2.1e-09	-1.7e-09	1.64e-08
-0.0	-9e-10	1.14e-08
-2.1e-09	-1.7e-09	1.64e-08

VECTORS	v 	float 
0.0	0.0	0.0
0.0	0.0	0.0
0.0	0.0	0.0
0.0	0.0	0.0
0.0	0.0	0.0
0.0	0.0	0.0
0.0	0.0	0.0
0.0	0.0	0.0
0.0	0.0	0.0
-0.0	-0.0	-0.0
-0.0	-0.0	-0.0
0.0	-0.0	-0.0
-0.0	0.0	-0.0
-0.0	0.0	-0.0
0.0	0.0	-0.0
-0.0	0.0	-0.0
-0.0	0.0	-0.0
0.0	0.0	-0.0
-0.0	-0.0	-0.0
0.0	-0.0	-0.0
0.0	-0.0	-0.0
-0.0	0.0	-0.0
-0.0	0.0	-0.0
0.0	-0.0	-0.0
-0.0	0.0	-0.0
-0.0	0.0	-0.0
0.0	0.0	-0.0

VECTORS	a 	float 
0.0	0.0	0.0
0.0	0.0	0.0
0.0	0.0	0.0
0.0	0.0	0.0
0.0	0.0	0.0
0.0	0.0	0.0
0.0	0.0	0.0
0.0	0.0	0.0
0.0	0.0	0.0
-0.0	-0.0	-0.0
-0.0	-0.0	-0.0
0.0	-0.0	-0.0
-0.0	0.0	-0.0
-0.0	0.0	-0.0
0.0	0.0	-0.0
-0.0	0.0	-0.0
-0.0	0.0	-0.0
0.0	0.0	-0.0
-0.0	-0.0	-0.0
0.0	-0.0	-0.0
0.0	-0.0	-0.0
-0.0	0.0	-0.0
-0.0	0.0	-0.0
0.0	-0.0	-0.0
-0.0	0.0	-0.0
-0.0	0.0	-0.0
0.0	0.0	-0.0

SCALARS	phi	float 1
LOOKUP_TABLE	default
0.0
0.0
0.0
0.0
0.0
0.0
0.0
0.0
0.0
6.374321695
6.2770458593
6.374321695
6.3019533527
6.2603160136
6.3019533527
6.374321695
6.2770458593
6.374321695
13.0043906548
13.177379682
13.0043906548
13.1276932389
13.2103359817
13.1276932389
13.0043906548
13.177379682
13.0043906548

SCALARS	sig_11	float	1
LOOKUP_TABLE	default
436.4054681696
428.5074553094
436.4054681696
437.1449282621
420.2811085774
437.1449282621
436.4054681696
428.5074553094
436.4054681696
126.0749300699
27.6217422117
126.0749300699
41.9048135751
-12.0961438564
41.9048135751
126.0749300699
27.6217422117
126.0749300699
9.9836340394
-153.2950461926
9.9836340395
-128.4375429669
-193.8459556448
-128.4375429669
9.9836340395
-153.2950461926
9.9836340395

SCALARS	sig_22	float	1
LOOKUP_TABLE	default
425.1922449126
420.2452380266
425.1922449126
427.02141813
413.1086043907
427.02141813
425.1922449126
420.2452380266
425.1922449126
96.0532539571
16.9113802855
96.0532539571
12.1141709806
-22.5754722697
12.1141709806
96.0532539571
16.9113802855
96.0532539571
20.4783728099
-77.0995265942
20.4783728099
-135.0817226233
-134.7893544554
-135.0817226233
20.4783728099
-77.0995265942
20.4783728099

SCALARS	sig_33	float	1
LOOKUP_TABLE	default
1246.2777732807
1225.9051781843
1246.2777732807
1251.1170614129
1211.4166919171
1251.1170614129
1246.2777732807
1225.9051781843
1246.2777732807
1267.5461113155
1035.1525537168
1267.5461113155
1086.0573188769
949.9134229146
1086.0573188769
1267.5461113155
1035.1525537168
1267.5461113155
1430.2065987285
1011.521762869
1430.2065987285
1076.5369712509
869.679232519
1076.5369712509
1430.2065987285
1011.521762869
1430.2065987285

SCALARS vonMises	float	1
LOOKUP_TABLE	default
586.2026872828
571.3499030406
586.2026872828
584.16629057
562.9310932631
584.16629057
586.2026872828
571.3499030406
586.2026872828
827.7574728976
725.1924471894
827.7574728976
756.0019278131
689.1132546464
756.0019278131
827.7574728976
725.1924471894
827.7574728976
1095.0219932494
885.4378823987
1095.0219932494
931.8112652724
779.905733453
931.8112652724
1095.0219932494
885.4378823987
1095.0219932494
