# vtk DataFile Version 2.0
Results
ASCII
DATASET UNSTRUCTURED_GRID
POINTS         27           float
0.0	0.0	0.0	
0.5	0.0	0.0	
1.0	0.0	0.0	
0.0	0.4	0.0	
0.5	0.4	0.0	
1.0	0.4	0.0	
0.0	0.8	0.0	
0.5	0.8	0.0	
1.0	0.8	0.0	
0.0	0.0	0.7	
0.5	0.0	0.7	
1.0	0.0	0.7	
0.0	0.4	0.7	
0.5	0.4	0.7	
1.0	0.4	0.7	
0.0	0.8	0.7	
0.5	0.8	0.7	
1.0	0.8	0.7	
0.0	0.0	1.4	
0.5	0.0	1.4	
1.0	0.0	1.4	
0.0	0.4	1.4	
0.5	0.4	1.4	
1.0	0.4	1.4	
0.0	0.8	1.4	
0.5	0.8	1.4	
1.0	0.8	1.4	

CELLS	8	72
 8	0	1	4	3	9	10	13	12	
 8	1	2	5	4	10	11	14	13	
 8	4	5	8	7	13	14	17	16	
 8	3	4	7	6	12	13	16	15	
 8	9	10	13	12	18	19	22	21	
 8	10	11	14	13	19	20	23	22	
 8	13	14	17	16	22	23	26	25	
 8	12	13	16	15	21	22	25	24	

CELL_TYPES	8
 12
 12
 12
 12
 12
 12
 12
 12

POINT_DATA	27
VECTORS	u 	float 
0.0	0.0	0.0
0.0	0.0	0.0
0.0	0.0	0.0
0.0	0.0	0.0
0.0	0.0	0.0
0.0	0.0	0.0
0.0	0.0	0.0
0.0	0.0	0.0
0.0	0.0	0.0
1.3e-09	1.3e-09	5.9e-09
-0.0	1.2e-09	5.8e-09
-1.3e-09	1.3e-09	5.9e-09
1.3e-09	0.0	6e-09
0.0	0.0	5.6e-09
-1.3e-09	0.0	6e-09
1.3e-09	-1.3e-09	5.9e-09
0.0	-1.2e-09	5.8e-09
-1.3e-09	-1.3e-09	5.9e-09
2.1e-09	1.7e-09	1.64e-08
-0.0	9e-10	1.14e-08
-2.1e-09	1.7e-09	1.64e-08
1.8e-09	0.0	1.26e-08
-0.0	0.0	1.08e-08
-1.8e-09	0.0	1.26e-08
2.1e-09	-1.7e-09	1.64e-08
-0.0	-9e-10	1.14e-08
-2.1e-09	-1.7e-09	1.64e-08

VECTORS	v 	float 
0.0	0.0	0.0
0.0	0.0	0.0
0.0	0.0	0.0
0.0	0.0	0.0
0.0	0.0	0.0
0.0	0.0	0.0
0.0	0.0	0.0
0.0	0.0	0.0
0.0	0.0	0.0
1.3e-09	1.3e-09	5.9e-09
0.0	1.2e-09	5.8e-09
-1.3e-09	1.3e-09	5.9e-09
1.3e-09	-0.0	6e-09
0.0	-0.0	5.6e-09
-1.3e-09	-0.0	6e-09
1.3e-09	-1.3e-09	5.9e-09
0.0	-1.2e-09	5.8e-09
-1.3e-09	-1.3e-09	5.9e-09
2.1e-09	1.7e-09	1.64e-08
-0.0	9e-10	1.14e-08
-2.1e-09	1.7e-09	1.64e-08
1.8e-09	-0.0	1.26e-08
0.0	-0.0	1.08e-08
-1.8e-09	0.0	1.26e-08
2.1e-09	-1.7e-09	1.64e-08
0.0	-9e-10	1.14e-08
-2.1e-09	-1.7e-09	1.64e-08

VECTORS	a 	float 
0.0	0.0	0.0
0.0	0.0	0.0
0.0	0.0	0.0
0.0	0.0	0.0
0.0	0.0	0.0
0.0	0.0	0.0
0.0	0.0	0.0
0.0	0.0	0.0
0.0	0.0	0.0
1.3e-09	1.3e-09	5.9e-09
0.0	1.2e-09	5.8e-09
-1.3e-09	1.3e-09	5.9e-09
1.3e-09	-0.0	6e-09
0.0	-0.0	5.6e-09
-1.3e-09	-0.0	6e-09
1.3e-09	-1.3e-09	5.9e-09
0.0	-1.2e-09	5.8e-09
-1.3e-09	-1.3e-09	5.9e-09
2.1e-09	1.7e-09	1.64e-08
-0.0	9e-10	1.14e-08
-2.1e-09	1.7e-09	1.64e-08
1.8e-09	-0.0	1.26e-08
0.0	-0.0	1.08e-08
-1.8e-09	0.0	1.26e-08
2.1e-09	-1.7e-09	1.64e-08
0.0	-9e-10	1.14e-08
-2.1e-09	-1.7e-09	1.64e-08

SCALARS	phi	float 1
LOOKUP_TABLE	default
0.0
0.0
0.0
0.0
0.0
0.0
0.0
0.0
0.0
6.3743216299
6.2770457866
6.3743216299
6.3019532796
6.2603159382
6.3019532796
6.3743216299
6.2770457866
6.3743216299
13.0043904436
13.1773795116
13.0043904436
13.1276930581
13.2103358172
13.1276930581
13.0043904436
13.1773795116
13.0043904436

SCALARS	sig_11	float	1
LOOKUP_TABLE	default
436.405468363
428.5074539926
436.4054683631
437.1449275177
420.2811065864
437.1449275177
436.4054683629
428.5074539926
436.4054683629
126.0749310164
27.6217418655
126.0749310164
41.9048136076
-12.0961443354
41.9048136076
126.0749310164
27.6217418655
126.0749310164
9.9836356733
-153.295046436
9.9836356732
-128.4375430678
-193.8459562003
-128.4375430678
9.9836356732
-153.295046436
9.9836356732

SCALARS	sig_22	float	1
LOOKUP_TABLE	default
425.1922452577
420.2452371664
425.1922452577
427.0214172315
413.1086025794
427.0214172315
425.1922452576
420.2452371664
425.1922452576
96.0532552427
16.9113808783
96.0532552427
12.1141709453
-22.5754722111
12.1141709453
96.0532552427
16.9113808783
96.0532552427
20.4783738212
-77.0995263139
20.4783738211
-135.0817241768
-134.7893553351
-135.0817241768
20.4783738212
-77.0995263138
20.4783738212

SCALARS	sig_33	float	1
LOOKUP_TABLE	default
1246.277771521
1225.905173717
1246.2777715211
1251.1170576592
1211.4166860375
1251.1170576592
1246.277771521
1225.9051737171
1246.277771521
1267.5461076289
1035.1525474415
1267.5461076289
1086.0573126864
949.9134156538
1086.0573126864
1267.5461076289
1035.1525474415
1267.5461076289
1430.2065981298
1011.5217573811
1430.2065981297
1076.5369646772
869.6792240558
1076.5369646772
1430.2065981297
1011.5217573812
1430.2065981297

SCALARS vonMises	float	1
LOOKUP_TABLE	default
586.2026860863
571.3499007789
586.2026860863
584.1662886388
562.9310904727
584.1662886387
586.2026860863
571.3499007789
586.2026860863
827.7574693219
725.1924426306
827.7574693219
756.0019233758
689.113249651
756.0019233758
827.7574693219
725.1924426306
827.7574693219
1095.0219885534
885.4378763446
1095.0219885534
931.8112592346
779.9057269459
931.8112592346
1095.0219885534
885.4378763446
1095.0219885534
