# vtk DataFile Version 2.0
Results
ASCII
DATASET UNSTRUCTURED_GRID
POINTS         27           float
0.0	0.0	0.0	
0.5	0.0	0.0	
1.0	0.0	0.0	
0.0	0.4	0.0	
0.5	0.4	0.0	
1.0	0.4	0.0	
0.0	0.8	0.0	
0.5	0.8	0.0	
1.0	0.8	0.0	
0.0	0.0	0.7	
0.5	0.0	0.7	
1.0	0.0	0.7	
0.0	0.4	0.7	
0.5	0.4	0.7	
1.0	0.4	0.7	
0.0	0.8	0.7	
0.5	0.8	0.7	
1.0	0.8	0.7	
0.0	0.0	1.4	
0.5	0.0	1.4	
1.0	0.0	1.4	
0.0	0.4	1.4	
0.5	0.4	1.4	
1.0	0.4	1.4	
0.0	0.8	1.4	
0.5	0.8	1.4	
1.0	0.8	1.4	

CELLS	8	72
 8	0	1	4	3	9	10	13	12	
 8	1	2	5	4	10	11	14	13	
 8	4	5	8	7	13	14	17	16	
 8	3	4	7	6	12	13	16	15	
 8	9	10	13	12	18	19	22	21	
 8	10	11	14	13	19	20	23	22	
 8	13	14	17	16	22	23	26	25	
 8	12	13	16	15	21	22	25	24	

CELL_TYPES	8
 12
 12
 12
 12
 12
 12
 12
 12

POINT_DATA	27
VECTORS	u 	float 
0.0	0.0	0.0
0.0	0.0	0.0
0.0	0.0	0.0
0.0	0.0	0.0
0.0	0.0	0.0
0.0	0.0	0.0
0.0	0.0	0.0
0.0	0.0	0.0
0.0	0.0	0.0
-1e-10	-1e-10	1e-10
-0.0	-1e-10	2e-10
1e-10	-1e-10	1e-10
-1e-10	-0.0	1e-10
-0.0	-0.0	2e-10
1e-10	-0.0	1e-10
-1e-10	1e-10	1e-10
0.0	1e-10	2e-10
1e-10	1e-10	1e-10
-1e-10	-1e-10	3e-10
-0.0	-1e-10	3e-10
1e-10	-1e-10	3e-10
-1e-10	-0.0	2e-10
0.0	-0.0	2e-10
1e-10	-0.0	2e-10
-1e-10	1e-10	3e-10
0.0	1e-10	3e-10
1e-10	1e-10	3e-10

VECTORS	v 	float 
0.0	0.0	0.0
0.0	0.0	0.0
0.0	0.0	0.0
0.0	0.0	0.0
0.0	0.0	0.0
0.0	0.0	0.0
0.0	0.0	0.0
0.0	0.0	0.0
0.0	0.0	0.0
-0.0	-0.0	1e-10
0.0	-0.0	1e-10
0.0	-0.0	1e-10
-0.0	0.0	1e-10
0.0	-0.0	1e-10
0.0	-0.0	1e-10
-0.0	0.0	1e-10
0.0	0.0	1e-10
0.0	0.0	1e-10
-0.0	-0.0	1e-10
0.0	-0.0	1e-10
0.0	-0.0	1e-10
-0.0	0.0	1e-10
0.0	0.0	1e-10
0.0	0.0	1e-10
-0.0	0.0	1e-10
0.0	0.0	1e-10
0.0	0.0	1e-10

VECTORS	a 	float 
0.0	0.0	0.0
0.0	0.0	0.0
0.0	0.0	0.0
0.0	0.0	0.0
0.0	0.0	0.0
0.0	0.0	0.0
0.0	0.0	0.0
0.0	0.0	0.0
0.0	0.0	0.0
0.0	0.0	-1e-10
-0.0	0.0	-1e-10
-0.0	0.0	-1e-10
0.0	-0.0	-1e-10
-0.0	0.0	-1e-10
-0.0	0.0	-1e-10
0.0	-0.0	-1e-10
-0.0	-0.0	-1e-10
-0.0	-0.0	-1e-10
0.0	0.0	-1e-10
-0.0	0.0	-1e-10
-0.0	0.0	-1e-10
0.0	-0.0	-1e-10
-0.0	-0.0	-1e-10
-0.0	-0.0	-1e-10
0.0	-0.0	-1e-10
-0.0	-0.0	-1e-10
-0.0	-0.0	-1e-10

SCALARS	phi	float 1
LOOKUP_TABLE	default
0.0
0.0
0.0
0.0
0.0
0.0
0.0
0.0
0.0
7.7076111843
7.7068317051
7.7076111843
7.7071266981
7.7063536389
7.7071266981
7.7076111843
7.7068317051
7.7076111843
15.3914515308
15.3923676073
15.3914515308
15.3920737178
15.3929737158
15.3920737178
15.3914515308
15.3923676073
15.3914515308

SCALARS	sig_11	float	1
LOOKUP_TABLE	default
-22.5194556618
-21.7685393257
-22.5194556618
-21.9752681632
-21.2135223258
-21.9752681632
-22.5194556618
-21.7685393257
-22.5194556618
0.6905503848
0.5928219182
0.6905503848
0.5636259803
0.4811147627
0.5636259803
0.6905503848
0.5928219182
0.6905503848
0.8574916126
0.1411800181
0.8574916126
0.1941035955
-0.5026030022
0.1941035955
0.8574916126
0.1411800181
0.8574916126

SCALARS	sig_22	float	1
LOOKUP_TABLE	default
-22.3189208999
-21.5843296848
-22.3189208999
-21.7747106896
-21.0292899732
-21.7747106896
-22.3189208999
-21.5843296848
-22.3189208999
1.20276324
1.1068606429
1.20276324
1.0578008283
0.9771154803
1.0578008283
1.20276324
1.1068606429
1.20276324
0.5216777937
0.0938484605
0.5216777937
-0.2503243539
-0.6585486903
-0.2503243539
0.5216777937
0.0938484605
0.5216777937

SCALARS	sig_33	float	1
LOOKUP_TABLE	default
-7.9489200945
-6.308136082
-7.9489200945
-6.7713096693
-5.1070452502
-6.7713096693
-7.9489200945
-6.308136082
-7.9489200945
3.956153469
3.7442127867
3.956153469
3.6251008824
3.4461227843
3.6251008824
3.956153469
3.7442127867
3.956153469
0.9435398298
-0.8910638725
0.9435398298
-0.8340428827
-2.6262018233
-0.8340428827
0.9435398298
-0.8910638725
0.9435398298

SCALARS vonMises	float	1
LOOKUP_TABLE	default
11.8844240624
11.6409422206
11.8844240624
11.7138414316
11.5084283934
11.7138414316
11.8844240624
11.6409422206
11.8844240624
4.6621625342
4.4300918374
4.6621625342
4.4631984219
4.4022856588
4.4631984219
4.6621625342
4.4300918374
4.6621625342
0.9883797895
0.9945468116
0.9883797895
0.9686817209
1.5399151339
0.9686817209
0.9883797895
0.9945468116
0.9883797895
