# vtk DataFile Version 2.0
Results
ASCII
DATASET UNSTRUCTURED_GRID
POINTS         27           float
0.0	0.0	0.0	
0.5	0.0	0.0	
1.0	0.0	0.0	
0.0	0.4	0.0	
0.5	0.4	0.0	
1.0	0.4	0.0	
0.0	0.8	0.0	
0.5	0.8	0.0	
1.0	0.8	0.0	
0.0	0.0	0.7	
0.5	0.0	0.7	
1.0	0.0	0.7	
0.0	0.4	0.7	
0.5	0.4	0.7	
1.0	0.4	0.7	
0.0	0.8	0.7	
0.5	0.8	0.7	
1.0	0.8	0.7	
0.0	0.0	1.4	
0.5	0.0	1.4	
1.0	0.0	1.4	
0.0	0.4	1.4	
0.5	0.4	1.4	
1.0	0.4	1.4	
0.0	0.8	1.4	
0.5	0.8	1.4	
1.0	0.8	1.4	

CELLS	8	72
 8	0	1	4	3	9	10	13	12	
 8	1	2	5	4	10	11	14	13	
 8	4	5	8	7	13	14	17	16	
 8	3	4	7	6	12	13	16	15	
 8	9	10	13	12	18	19	22	21	
 8	10	11	14	13	19	20	23	22	
 8	13	14	17	16	22	23	26	25	
 8	12	13	16	15	21	22	25	24	

CELL_TYPES	8
 12
 12
 12
 12
 12
 12
 12
 12

POINT_DATA	27
VECTORS	u 	float 
0.0	0.0	0.0
0.0	0.0	0.0
0.0	0.0	0.0
0.0	0.0	0.0
0.0	0.0	0.0
0.0	0.0	0.0
0.0	0.0	0.0
0.0	0.0	0.0
0.0	0.0	0.0
-1e-10	-1e-10	1e-10
0.0	-1e-10	2e-10
1e-10	-1e-10	1e-10
-1e-10	0.0	1e-10
-0.0	-0.0	2e-10
1e-10	0.0	1e-10
-1e-10	1e-10	1e-10
-0.0	1e-10	2e-10
1e-10	1e-10	1e-10
-1e-10	-1e-10	3e-10
0.0	-1e-10	3e-10
1e-10	-1e-10	3e-10
-1e-10	0.0	2e-10
0.0	0.0	2e-10
1e-10	0.0	2e-10
-1e-10	1e-10	3e-10
0.0	1e-10	3e-10
1e-10	1e-10	3e-10

VECTORS	v 	float 
0.0	0.0	0.0
0.0	0.0	0.0
0.0	0.0	0.0
0.0	0.0	0.0
0.0	0.0	0.0
0.0	0.0	0.0
0.0	0.0	0.0
0.0	0.0	0.0
0.0	0.0	0.0
-1e-10	-1e-10	1e-10
0.0	-1e-10	2e-10
1e-10	-1e-10	1e-10
-1e-10	0.0	1e-10
0.0	-0.0	2e-10
1e-10	-0.0	1e-10
-1e-10	1e-10	1e-10
0.0	1e-10	2e-10
1e-10	1e-10	1e-10
-1e-10	-1e-10	3e-10
0.0	-1e-10	3e-10
1e-10	-1e-10	3e-10
-1e-10	0.0	2e-10
0.0	0.0	2e-10
1e-10	0.0	2e-10
-1e-10	1e-10	3e-10
0.0	1e-10	3e-10
1e-10	1e-10	3e-10

VECTORS	a 	float 
0.0	0.0	0.0
0.0	0.0	0.0
0.0	0.0	0.0
0.0	0.0	0.0
0.0	0.0	0.0
0.0	0.0	0.0
0.0	0.0	0.0
0.0	0.0	0.0
0.0	0.0	0.0
-1e-10	-1e-10	1e-10
0.0	-1e-10	2e-10
1e-10	-1e-10	1e-10
-1e-10	0.0	1e-10
0.0	-0.0	2e-10
1e-10	-0.0	1e-10
-1e-10	1e-10	1e-10
0.0	1e-10	2e-10
1e-10	1e-10	1e-10
-1e-10	-1e-10	3e-10
0.0	-1e-10	3e-10
1e-10	-1e-10	3e-10
-1e-10	0.0	2e-10
0.0	0.0	2e-10
1e-10	0.0	2e-10
-1e-10	1e-10	3e-10
0.0	1e-10	3e-10
1e-10	1e-10	3e-10

SCALARS	phi	float 1
LOOKUP_TABLE	default
0.0
0.0
0.0
0.0
0.0
0.0
0.0
0.0
0.0
7.7076111838
7.7068317048
7.7076111838
7.7071266978
7.7063536388
7.7071266978
7.7076111838
7.7068317048
7.7076111838
15.391451532
15.3923676083
15.391451532
15.3920737188
15.3929737166
15.3920737188
15.391451532
15.3923676083
15.391451532

SCALARS	sig_11	float	1
LOOKUP_TABLE	default
-22.5194556655
-21.7685393313
-22.5194556655
-21.9752681677
-21.2135223321
-21.9752681677
-22.5194556655
-21.7685393313
-22.5194556655
0.6905503852
0.5928219178
0.6905503852
0.5636259804
0.4811147621
0.5636259804
0.6905503852
0.5928219178
0.6905503852
0.8574916127
0.1411800186
0.8574916127
0.1941035959
-0.5026030014
0.1941035959
0.8574916127
0.1411800186
0.8574916127

SCALARS	sig_22	float	1
LOOKUP_TABLE	default
-22.3189209037
-21.5843296896
-22.3189209037
-21.774710695
-21.0292899795
-21.774710695
-22.3189209037
-21.5843296896
-22.3189209037
1.2027632404
1.106860643
1.2027632404
1.0578008281
0.9771154799
1.0578008281
1.2027632404
1.106860643
1.2027632404
0.5216777937
0.093848461
0.5216777937
-0.2503243537
-0.6585486896
-0.2503243537
0.5216777937
0.093848461
0.5216777937

SCALARS	sig_33	float	1
LOOKUP_TABLE	default
-7.9489200956
-6.3081360836
-7.9489200956
-6.771309671
-5.1070452523
-6.771309671
-7.9489200956
-6.3081360836
-7.9489200956
3.95615347
3.7442127874
3.95615347
3.6251008831
3.4461227847
3.6251008831
3.95615347
3.7442127874
3.95615347
0.9435398299
-0.8910638724
0.9435398299
-0.8340428826
-2.6262018231
-0.8340428826
0.9435398299
-0.8910638724
0.9435398299

SCALARS vonMises	float	1
LOOKUP_TABLE	default
11.8844240657
11.6409422239
11.8844240657
11.7138414348
11.5084283965
11.7138414348
11.8844240657
11.6409422239
11.8844240657
4.662162536
4.4300918391
4.662162536
4.4631984235
4.4022856603
4.4631984235
4.662162536
4.4300918391
4.662162536
0.9883797898
0.9945468119
0.9883797898
0.9686817212
1.5399151344
0.9686817212
0.9883797898
0.9945468119
0.9883797898
