# vtk DataFile Version 2.0
Results
ASCII
DATASET UNSTRUCTURED_GRID
POINTS         27           float
0.0	0.0	0.0	
0.5	0.0	0.0	
1.0	0.0	0.0	
0.0	0.4	0.0	
0.5	0.4	0.0	
1.0	0.4	0.0	
0.0	0.8	0.0	
0.5	0.8	0.0	
1.0	0.8	0.0	
0.0	0.0	0.7	
0.5	0.0	0.7	
1.0	0.0	0.7	
0.0	0.4	0.7	
0.5	0.4	0.7	
1.0	0.4	0.7	
0.0	0.8	0.7	
0.5	0.8	0.7	
1.0	0.8	0.7	
0.0	0.0	1.4	
0.5	0.0	1.4	
1.0	0.0	1.4	
0.0	0.4	1.4	
0.5	0.4	1.4	
1.0	0.4	1.4	
0.0	0.8	1.4	
0.5	0.8	1.4	
1.0	0.8	1.4	

CELLS	8	72
 8	0	1	4	3	9	10	13	12	
 8	1	2	5	4	10	11	14	13	
 8	4	5	8	7	13	14	17	16	
 8	3	4	7	6	12	13	16	15	
 8	9	10	13	12	18	19	22	21	
 8	10	11	14	13	19	20	23	22	
 8	13	14	17	16	22	23	26	25	
 8	12	13	16	15	21	22	25	24	

CELL_TYPES	8
 12
 12
 12
 12
 12
 12
 12
 12

POINT_DATA	27
VECTORS	u 	float 
0.0	0.0	0.0
0.0	0.0	0.0
0.0	0.0	0.0
0.0	0.0	0.0
0.0	0.0	0.0
0.0	0.0	0.0
0.0	0.0	0.0
0.0	0.0	0.0
0.0	0.0	0.0
-1e-10	-1e-10	1e-10
-0.0	-1e-10	2e-10
1e-10	-1e-10	1e-10
-1e-10	-0.0	1e-10
-0.0	-0.0	2e-10
1e-10	-0.0	1e-10
-1e-10	1e-10	1e-10
-0.0	1e-10	2e-10
1e-10	1e-10	1e-10
-1e-10	-1e-10	3e-10
-0.0	-1e-10	3e-10
1e-10	-1e-10	3e-10
-1e-10	-0.0	2e-10
0.0	-0.0	2e-10
1e-10	-0.0	2e-10
-1e-10	1e-10	3e-10
0.0	1e-10	3e-10
1e-10	1e-10	3e-10

VECTORS	v 	float 
0.0	0.0	0.0
0.0	0.0	0.0
0.0	0.0	0.0
0.0	0.0	0.0
0.0	0.0	0.0
0.0	0.0	0.0
0.0	0.0	0.0
0.0	0.0	0.0
0.0	0.0	0.0
0.0	0.0	0.0
0.0	-0.0	0.0
0.0	0.0	0.0
-0.0	0.0	-0.0
0.0	0.0	0.0
0.0	0.0	-0.0
-0.0	0.0	-0.0
0.0	0.0	-0.0
0.0	0.0	-0.0
-0.0	0.0	-0.0
0.0	0.0	0.0
0.0	0.0	0.0
0.0	0.0	0.0
0.0	0.0	0.0
-0.0	0.0	0.0
0.0	0.0	-0.0
0.0	0.0	-0.0
0.0	0.0	-0.0

VECTORS	a 	float 
0.0	0.0	0.0
0.0	0.0	0.0
0.0	0.0	0.0
0.0	0.0	0.0
0.0	0.0	0.0
0.0	0.0	0.0
0.0	0.0	0.0
0.0	0.0	0.0
0.0	0.0	0.0
0.0	0.0	0.0
0.0	-0.0	0.0
0.0	0.0	0.0
0.0	0.0	0.0
0.0	0.0	0.0
0.0	0.0	-0.0
0.0	0.0	0.0
0.0	0.0	0.0
0.0	0.0	0.0
0.0	0.0	-0.0
0.0	0.0	0.0
0.0	0.0	0.0
0.0	0.0	0.0
0.0	0.0	0.0
0.0	0.0	0.0
0.0	0.0	-0.0
0.0	0.0	0.0
0.0	0.0	0.0

SCALARS	phi	float 1
LOOKUP_TABLE	default
0.0
0.0
0.0
0.0
0.0
0.0
0.0
0.0
0.0
7.7076111843
7.7068317051
7.7076111843
7.7071266981
7.7063536389
7.7071266981
7.7076111843
7.7068317051
7.7076111843
15.3914515308
15.3923676073
15.3914515308
15.3920737178
15.3929737158
15.3920737178
15.3914515308
15.3923676073
15.3914515308

SCALARS	sig_11	float	1
LOOKUP_TABLE	default
-22.5194556634
-21.7685393274
-22.5194556634
-21.9752681648
-21.2135223274
-21.9752681648
-22.5194556634
-21.7685393274
-22.5194556634
0.6905503852
0.5928219181
0.6905503852
0.5636259801
0.4811147622
0.5636259801
0.6905503852
0.5928219181
0.6905503852
0.8574916127
0.1411800181
0.8574916127
0.1941035954
-0.5026030023
0.1941035954
0.8574916127
0.1411800181
0.8574916127

SCALARS	sig_22	float	1
LOOKUP_TABLE	default
-22.3189209015
-21.5843296865
-22.3189209015
-21.7747106911
-21.0292899748
-21.7747106911
-22.3189209015
-21.5843296865
-22.3189209015
1.2027632403
1.1068606427
1.2027632403
1.0578008283
0.9771154798
1.0578008283
1.2027632403
1.1068606427
1.2027632403
0.5216777938
0.0938484608
0.5216777938
-0.2503243543
-0.6585486904
-0.2503243543
0.5216777938
0.0938484608
0.5216777938

SCALARS	sig_33	float	1
LOOKUP_TABLE	default
-7.9489200941
-6.3081360823
-7.9489200941
-6.7713096694
-5.1070452509
-6.7713096694
-7.9489200941
-6.3081360823
-7.9489200941
3.9561534695
3.7442127868
3.9561534695
3.6251008826
3.4461227842
3.6251008826
3.9561534695
3.7442127868
3.9561534695
0.9435398291
-0.8910638728
0.9435398291
-0.8340428832
-2.6262018232
-0.8340428832
0.9435398291
-0.8910638728
0.9435398291

SCALARS vonMises	float	1
LOOKUP_TABLE	default
11.8844240636
11.6409422215
11.8844240636
11.7138414325
11.508428394
11.7138414325
11.8844240636
11.6409422215
11.8844240636
4.6621625351
4.4300918381
4.6621625351
4.4631984226
4.4022856592
4.4631984226
4.6621625351
4.4300918381
4.6621625351
0.98837979
0.994546812
0.98837979
0.9686817214
1.5399151337
0.9686817214
0.98837979
0.994546812
0.98837979
